#------------------------------------------------------------------------------
#$Date$
#$Revision$
#$URL$
#------------------------------------------------------------------------------
#
# This file is available in the Crystallography Open Database (COD),
# http://www.crystallography.net/
#
# All data on this site have been placed in the public domain by the
# contributors.
#
data_2004650
_journal_name_full               'Acta Crystallographica C'
_journal_volume                  52
_journal_year      1996
_journal_page_first    	626
_journal_page_last    	628
_publ_section_title
;
Dichlorobis(1-methylcytosine)copper(II)
;
_chemical_formula_sum    	'C10 H14 Cl2 Cu N6 O2'
_chemical_formula_weight    	384.7
_symmetry_cell_setting    	monoclinic
_space_group_IT_number           15
_symmetry_space_group_name_Hall  '-C 2yc'
_symmetry_space_group_name_H-M   'C 1 2/c 1'
_[local]_cod_cif_authors_sg_H-M  'C 2/c'
loop_
_symmetry_equiv_pos_as_xyz
'x,y,z'
'x,-y,1/2+z'
'-x,-y,-z'
'-x,y,1/2-z'
'1/2+x,1/2+y,z'
'1/2+x,1/2-y,1/2+z'
'1/2-x,1/2-y,-z'
'1/2-x,1/2+y,1/2-z'
_cell_length_a    	31.328(2)
_cell_length_b    	7.236(1)
_cell_length_c    	13.216(2)
_cell_angle_alpha    	90
_cell_angle_beta    	97.8(1)
_cell_angle_gamma    	90
_cell_volume    	2968.2(10)
_cell_formula_units_Z    	8
_exptl_crystal_density_diffrn    	1.72
_cell_measurement_temperature    	room
loop_
_atom_site_label
_atom_site_fract_x
_atom_site_fract_y
_atom_site_fract_z
_atom_site_U_iso_or_equiv
Cu 0.37105(2) 0.22242(7) 0.92160(4) 0.0337(2)
Cl(1) 0.39476(4) 0.2047(2) 1.09150(8) 0.0501(3)
Cl(2) 0.32243(4) 0.4409(2) 0.9392(1) 0.0663(5)
O(2) 0.3224(1) -0.0767(4) 0.8720(2) 0.048(1)
N(1) 0.2966(1) -0.0727(5) 0.7014(3) 0.038(1)
N(3) 0.3425(1) 0.1624(5) 0.7784(2) 0.033(1)
N(4) 0.3617(1) 0.4091(5) 0.6859(3) 0.050(1)
C(1) 0.2747(2) -0.2506(7) 0.7106(4) 0.057(2)
C(2) 0.3204(1) 0.0010(5) 0.7871(3) 0.033(1)
C(4) 0.3395(1) 0.2520(6) 0.6890(3) 0.036(1)
C(5) 0.3140(2) 0.1790(7) 0.6020(3) 0.045(2)
C(6) 0.2938(1) 0.0174(7) 0.6109(3) 0.044(1)
O(2') 0.4432(1) 0.4196(4) 0.8794(3) 0.047(1)
N(1') 0.4982(1) 0.2125(6) 0.8752(3) 0.043(1)
N(3') 0.4272(1) 0.1148(5) 0.8889(3) 0.037(1)
N(4') 0.4113(1) -0.1957(5) 0.8968(3) 0.055(2)
C(1') 0.5298(2) 0.3623(9) 0.8776(4) 0.060(2)
C(2') 0.4556(1) 0.2548(6) 0.8813(3) 0.038(1)
C(4') 0.4393(1) -0.0633(6) 0.8866(3) 0.041(1)
C(5') 0.4832(2) -0.1078(7) 0.8771(3) 0.051(2)
C(6') 0.5106(1) 0.0325(8) 0.8727(3) 0.053(2)
H(1A) 0.274(4) -0.26(2) 0.769(9) ?
H(1B) 0.290(3) -0.31(1) 0.681(7) ?
H(1C) 0.249(3) -0.25(1) 0.681(6) ?
H(5) 0.314(2) 0.237(8) 0.539(4) ?
H(6) 0.273(2) -0.054(9) 0.549(5) ?
H(1'A) 0.557(1) 0.305(6) 0.880(3) ?
H(1'B) 0.533(2) 0.410(8) 0.932(4) ?
H(1'C) 0.524(2) 0.422(8) 0.823(4) ?
H(5') 0.491(1) -0.243(7) 0.869(4) ?
H(6') 0.539(2) 0.016(9) 0.870(5) ?
H(4A) 0.375(1) 0.449(7) 0.742(3) ?
H(4B) 0.354(1) 0.482(7) 0.626(3) ?
H(4'A) 0.390(1) -0.176(6) 0.904(3) ?
H(4'B) 0.420(4) -0.33(2) 0.904(8) ?
_cod_database_code 2004650
