#------------------------------------------------------------------------------
#$Date: 2010-01-30 15:59:17 +0200 (Sat, 30 Jan 2010) $
#$Revision: 966 $
#$URL: svn://www.crystallography.net/cod/cif/2/2007947.cif $
#------------------------------------------------------------------------------
#
# This file is available in the Crystallography Open Database (COD),
# http://www.crystallography.net/
#
# All data on this site have been placed in the public domain by the
# contributors.
#
data_2007947
_journal_name_full 'Acta Crystallographica Section C'
_journal_year  1998
_journal_volume 54
_journal_page_first  1983
_journal_page_last  1986
_publ_section_title
;
Complexe de T\'etracyanoquinodim\'ethane et 4-Amino-3,5-bis-
(2-pyridyle)-1,2,4-triazole (TCNQ:abpt)
;
loop_
_publ_author_name
  'Mernari, B.'
  'El Azhar, M.'
  'El Attari, H.'
  "Lagren\'ee, M."
  'Pierrot, M.'
_chemical_formula_moiety  'C12 H4 N4 , C12 H10 N6 '
_chemical_formula_sum  'C24 H14 N10'
_chemical_formula_weight  442.44
_symmetry_cell_setting  'Triclinic'
_symmetry_space_group_name_H-M  'P -1'
loop_
_symmetry_equiv_pos_as_xyz
  +X,+Y,+Z
  -X,-Y,-Z
_cell_length_a  9.4440(10)
_cell_length_b  10.6760(10)
_cell_length_c  11.4080(10)
_cell_angle_alpha  82.4400(10)
_cell_angle_beta  85.4100(10)
_cell_angle_gamma  67.9500(10)
_cell_volume  1056.2(3)
_cell_formula_units_Z  2
_cell_measurement_temperature  '100-102K'
_chemical_temperature_decomposition "120--122"
_chemical_melting_point "23/25"
_exptl_crystal_density_diffrn  1.38
_refine_ls_R_factor_obs  0.057
_refine_ls_wR_factor_obs  0.068
loop_
_atom_site_label
_atom_site_fract_x
_atom_site_fract_y
_atom_site_fract_z
_atom_site_U_iso_or_equiv
_atom_site_thermal_displace_type
_atom_site_occupancy
  N6 0.30470(10)
  0.54670(10)
  0.63865(9) 0.0571(5) Uij 1.00
  N1 0.37060(10)
  0.44909(8) 0.73579(7) 0.0478(5) Uij 1.00
  N8 0.13990(10)
  0.36862(9) 0.64638(9) 0.0632(6) Uij 1.00
  N3 0.39420(10)
  0.29614(9) 0.88828(8) 0.0596(6) Uij 1.00
  N4 0.50670(10)
  0.34670(9) 0.89137(8) 0.0592(6) Uij 1.00
  C2 0.31210(10)
  0.35820(10)
  0.79437(9) 0.0492(6) Uij 1.00
  C5 0.49020(10)
  0.43990(10)
  0.79940(9) 0.0477(6) Uij 1.00
  C25 0.60410(10)
  0.04510(10)
  0.74530(10)
  0.0523(6) Uij 1.00
  C22 0.26390(10)
  -0.12090(10)
  0.75162(9) 0.0460(6) Uij 1.00
  N14 0.58570(10)
  0.58205(9) 0.66230(8) 0.0619(6) Uij 1.00
  C30 0.15210(10)
  -0.17320(10)
  0.75145(9) 0.0506(6) Uij 1.00
  C13 0.59070(10)
  0.51690(10)
  0.77210(10)
  0.0500(6) Uij 1.00
  C33 0.0446(2) -0.13580(10)
  0.66010(10)
  0.0559(7) Uij 1.00
  C19 0.49330(10)
  -0.00990(10)
  0.74789(9) 0.0488(6) Uij 1.00
  C26 0.61570(10)
  0.14400(10)
  0.65150(10)
  0.0574(7) Uij 1.00
  N27 0.62580(10)
  0.22380(10)
  0.57680(10)
  0.0776(7) Uij 1.00
  N34 -0.04740(10)
  -0.10660(10)
  0.59100(10)
  0.0766(7) Uij 1.00
  N32 0.11400(10)
  -0.35220(10)
  0.91266(9) 0.0733(7) Uij 1.00
  C20 0.47640(10)
  -0.10470(10)
  0.84560(9) 0.0535(6) Uij 1.00
  C28 0.7122(2) 0.01000(10)
  0.83590(10)
  0.0607(7) Uij 1.00
  N29 0.80320(10)
  -0.01780(10)
  0.90540(10)
  0.0823(8) Uij 1.00
  C31 0.13250(10)
  -0.27220(10)
  0.84320(10)
  0.0552(6) Uij 1.00
  C24 0.39000(10)
  0.02530(10)
  0.65242(9) 0.0507(6) Uij 1.00
  C7 0.18420(10)
  0.32860(10)
  0.75880(10)
  0.0525(6) Uij 1.00
  C23 0.28110(10)
  -0.02640(10)
  0.65365(9) 0.0512(6) Uij 1.00
  C9 0.0264(2) 0.33700(10)
  0.61360(10)
  0.0745(8) Uij 1.00
  C17 0.7852(2) 0.58510(10)
  0.82970(10)
  0.0710(8) Uij 1.00
  C21 0.36710(10)
  -0.15640(10)
  0.84681(9) 0.0519(6) Uij 1.00
  C12 0.1167(2) 0.25580(10)
  0.83980(10)
  0.0683(8) Uij 1.00
  C16 0.7824(2) 0.65230(10)
  0.71630(10)
  0.0757(8) Uij 1.00
  C15 0.6826(2) 0.64840(10)
  0.63780(10)
  0.0727(8) Uij 1.00
  C11 0.0011(2) 0.22420(10)
  0.80240(10)
  0.0833(9) Uij 1.00
  C18 0.68650(10)
  0.51770(10)
  0.85700(10)
  0.0602(7) Uij 1.00
  C10 -0.0443(2) 0.26430(10)
  0.6873(2) 0.0829(9) Uij 1.00
  H6A 0.259(2) 0.5060(10)
  0.5940(10)
  0.05000 Uiso 1.00
  H6B 0.392(2) 0.5690(10)
  0.6050(10)
  0.05000 Uiso 1.00
  H20 0.54398 -0.13059 0.91020 0.05000 Uiso 1.00
  H24 0.40535 0.08767 0.58662 0.05000 Uiso 1.00
  H23 0.21526 -0.00086 0.58895 0.05000 Uiso 1.00
  H9 0.00681 0.36817 0.53376 0.05000 Uiso 1.00
  H17 0.87420 0.58483 0.88786 0.05000 Uiso 1.00
  H21 0.35326 -0.21887 0.91241 0.05000 Uiso 1.00
  H12 0.15887 0.22839 0.92011 0.05000 Uiso 1.00
  H16 0.87279 0.70081 0.69311 0.05000 Uiso 1.00
  H15 0.70158 0.69522 0.55948 0.05000 Uiso 1.00
  H11 -0.03934 0.17423 0.85569 0.05000 Uiso 1.00
  H18 0.70179 0.47176 0.93503 0.05000 Uiso 1.00
  H10 -0.11444 0.24111 0.66003 0.05000 Uiso 1.00
loop_
_atom_site_aniso_label
_atom_site_aniso_U_11
_atom_site_aniso_U_22
_atom_site_aniso_U_33
_atom_site_aniso_U_12
_atom_site_aniso_U_13
_atom_site_aniso_U_23
  N6 0.0603(7) 0.0513(6) 0.0482(6) -.0205(5) -.0092(5) 0.0086(4)
  N1 0.0518(6) 0.0406(5) 0.0410(5) -.0155(4) 0.0023(5) -.0009(4)
  N8 0.0602(7) 0.0592(6) 0.0601(7) -.0234(5) -.0037(5) -.0062(5)
  N3 0.0643(7) 0.0533(6) 0.0501(6) -.0234(5) -.0016(5) 0.0028(5)
  N4 0.0626(7) 0.0555(6) 0.0484(6) -.0240(5) -.0029(5) 0.0053(5)
  C2 0.0520(7) 0.0398(6) 0.0453(7) -.0139(5) 0.0078(6) -.0032(5)
  C5 0.0464(7) 0.0454(6) 0.0411(6) -.0130(5) -.0012(5) -.0034(5)
  C25 0.0461(7) 0.0491(7) 0.0518(7) -.0148(5) 0.0003(6) -.0075(5)
  C22 0.0442(7) 0.0418(6) 0.0420(6) -.0115(5) 0.0014(5) -.0046(5)
  N14 0.0653(7) 0.0596(6) 0.0492(6) -.0253(5) 0.0035(5) 0.0008(5)
  C30 0.0514(7) 0.0457(6) 0.0436(6) -.0145(5) 0.0018(5) -.0008(5)
  C13 0.0484(7) 0.0430(6) 0.0481(7) -.0128(5) 0.0049(6) -.0058(5)
  C33 0.0548(8) 0.0532(7) 0.0509(7) -.0254(6) -.0012(6) 0.0033(5)
  C19 0.0481(7) 0.0418(6) 0.0461(7) -.0110(5) 0.0026(5) -.0076(5)
  C26 0.0513(8) 0.0516(7) 0.0595(8) -.0191(6) 0.0005(6) -.0055(6)
  N27 0.0752(8) 0.0707(7) 0.0750(8) -.0341(6) 0.0005(6) 0.0024(6)
  N34 0.0721(8) 0.0792(7) 0.0675(7) -.0379(6) -.0151(6) 0.0119(6)
  N32 0.0720(8) 0.0729(7) 0.0611(7) -.0311(6) 0.0005(6) 0.0100(6)
  C20 0.0515(7) 0.0524(7) 0.0454(7) -.0150(6) -.0018(5) -.0037(5)
  C28 0.0528(8) 0.0581(7) 0.0610(8) -.0212(6) 0.0018(7) -.0053(6)
  N29 0.0663(8) 0.0899(8) 0.0769(8) -.0311(7) -.0117(7) -.0002(6)
  C31 0.0499(8) 0.0537(7) 0.0501(7) -.0159(6) -.0017(6) 0.0017(6)
  C24 0.0504(7) 0.0459(6) 0.0461(7) -.0170(5) -.0003(5) -.0013(5)
  C7 0.0508(7) 0.0428(6) 0.0540(7) -.0145(5) 0.0068(6) -.0091(5)
  C23 0.0527(7) 0.0472(6) 0.0423(6) -.0139(5) -.0034(5) -.0019(5)
  C9 0.0642(9) 0.0684(8) 0.0810(10)
  -.0272(7) -.0025(8) -.0158(7)
  C17 0.0576(8) 0.0659(8) 0.0794(9) -.0241(7) -.0003(7) -.0132(7)
  C21 0.0538(8) 0.0471(6) 0.0437(7) -.0156(5) 0.0017(6) -.0009(5)
  C12 0.0675(9) 0.0614(8) 0.0664(8) -.0300(7) 0.0154(7) -.0122(6)
  C16 0.0604(9) 0.0681(8) 0.0900(10)
  -.0302(7) 0.0116(8) -.0181(7)
  C15 0.0727(9) 0.0668(8) 0.0671(9) -.0332(7) 0.0173(7) -.0027(6)
  C11 0.0740(10)
  0.0750(9) 0.0930(10)
  -.0403(8) 0.0269(9) -.0225(8)
  C18 0.0561(8) 0.0555(7) 0.0581(8) -.0177(6) -.0055(6) -.0066(6)
  C10 0.0574(9) 0.0765(9) 0.1070(10)
  -.0311(7) 0.0088(9) -.0318(8)
loop_
_geom_bond_atom_site_label_1
_geom_bond_atom_site_label_2
_geom_bond_site_symmetry_1
_geom_bond_site_symmetry_2
_geom_bond_distance
_geom_bond_publ_flag
  N6 N1 . . 1.421(2) yes
  N1 C2 . . 1.366(2) yes
  N1 C5 . . 1.357(2) yes
  N8 C7 . . 1.345(2) yes
  N8 C9 . . 1.331(2) no
  N3 N4 . . 1.365(2) yes
  N3 C2 . . 1.322(2) yes
  N4 C5 . . 1.323(2) yes
  C2 C7 . . 1.457(2) yes
  C5 C13 . . 1.464(2) yes
  C25 C19 . . 1.375(2) no
  C25 C26 . . 1.429(2) no
  C25 C28 . . 1.424(2) no
  C22 C30 . . 1.368(2) no
  C22 C23 . . 1.446(2) no
  C22 C21 . . 1.433(2) no
  N14 C13 . . 1.345(2) yes
  N14 C15 . . 1.346(2) no
  C30 C33 . . 1.424(2) no
  C30 C31 . . 1.439(2) no
  C13 C18 . . 1.379(2) yes
  C33 N34 . . 1.147(2) no
  C19 C20 . . 1.445(2) no
  C19 C24 . . 1.437(2) no
  C26 N27 . . 1.148(2) no
  N32 C31 . . 1.139(2) no
  C20 C21 . . 1.339(2) no
  C28 N29 . . 1.145(2) no
  C24 C23 . . 1.336(2) no
  C7 C12 . . 1.398(2) yes
  C9 C10 . . 1.372(3) no
  C17 C16 . . 1.390(3) no
  C17 C18 . . 1.373(2) no
  C12 C11 . . 1.370(2) no
  C16 C15 . . 1.366(2) no
  C11 C10 . . 1.376(3) no
_cod_database_code 2007947
