#------------------------------------------------------------------------------
#$Date$
#$Revision$
#$URL$
#------------------------------------------------------------------------------
#
# This file is available in the Crystallography Open Database (COD),
# http://www.crystallography.net/
#
# All data on this site have been placed in the public domain by the
# contributors.
#
data_2009480
_journal_name_full 'Acta Crystallographica Section C'
_journal_year  1994
_journal_volume 50
_journal_page_first  302
_journal_page_last  304
_publ_section_title
;
Structure of OPC-21268
;
_space_group_IT_number           14
_symmetry_space_group_name_Hall  '-P 2ybc'
_symmetry_space_group_name_H-M   'P 1 21/c 1'
_[local]_cod_cif_authors_sg_H-M  'P 21/c'
loop_
_publ_author_name
  'Kido, M.'
  'Kondo, K.'
  'Yamashita, H.'
  'Ogawa, H.'
_chemical_formula_sum  'C26 H31 N3 O4'
_chemical_formula_weight  449.55
_symmetry_cell_setting  monoclinic
loop_
_symmetry_equiv_pos_as_xyz
  'x,y,z'
  '-x,-y,-z'
  'x,1/2-y,1/2+z'
  '-x,-1/2+y,-1/2-z'
_cell_length_a  16.768(6)
_cell_length_b  8.958(3)
_cell_length_c  17.243(4)
_cell_angle_alpha  90.
_cell_angle_beta  113.50(2)
_cell_angle_gamma  90.
_cell_volume  2375.0(10)
_cell_formula_units_Z  4
_cell_measurement_temperature  'ambient temperature'
_exptl_crystal_density_diffrn  1.257
_refine_ls_R_factor_obs  0.043
_refine_ls_wR_factor_obs  0.049
loop_
_atom_site_label
_atom_site_fract_x
_atom_site_fract_y
_atom_site_fract_z
  O(1) .9113(2) .3714(3) .5217(2)
  O(2) .6714(2) -.1466(3) .37760(10)
  O(3) .49790(10)
  .2508(3) .05490(10)
  O(4) .2134(2) .4542(4) -.2187(2)
  N(1) .8656(2) .3699(4) .6291(2)
  N(2) .6915(2) .0702(3) .4488(2)
  N(3) .2941(2) .2717(4) -.2398(2)
  C(2) .9159(2) .4253(5) .5889(3)
  C(3) .9727(3) .5552(5) .6302(3)
  C(4) .9300(3) .6570(5) .6721(3)
  C(5) .9246(3) .6141(6) .8168(3)
  C(6) .9093(3) .5227(7) .8731(3)
  C(7) .8798(3) .3815(6) .8505(3)
  C(8) .8637(2) .3288(5) .7697(2)
  C(9) .9103(2) .5664(5) .7355(3)
  C(10) .8793(2) .4219(4) .7126(2)
  C(11) .7962(2) .2592(4) .5868(2)
  C(12) .8295(3) .1087(5) .5718(3)
  C(13) .7538(3) .0031(5) .5276(2)
  C(15) .6565(2) .2132(5) .4615(2)
  C(16) .7291(3) .3238(5) .5044(2)
  C(17) .6588(2) -.0105(5) .3777(2)
  C(19) .6105(2) .0682(4) .2959(2)
  C(20) .5327(3) .0117(5) .2384(2)
  C(21) .4918(3) .0713(5) .1580(2)
  C(22) .5304(2) .1876(4) .1334(2)
  C(23) .6078(2) .2469(5) .1901(2)
  C(24) .6466(2) .1878(5) .2710(2)
  C(26) .4199(3) .1894(5) -.0074(2)
  C(27) .4007(3) .2643(5) -.0910(2)
  C(28) .3176(3) .2033(5) -.1574(2)
  C(30) .2406(3) .3879(5) -.2656(2)
  C(31) .2141(5) .4317(8) -.3560(3)
  H(11) .760(2) .353(4) .463(2)
  H(3) .506(2) -.091(4) .251(2)
  H(9) .863(2) .128(4) .534(2)
  H(19) .452(2) .244(4) -.108(2)
  H(10) .867(2) .061(4) .626(2)
  H(22) .424(2) .076(4) -.011(2)
  H(6) .610(2) .251(4) .395(2)
  H(12) .703(2) .419(4) .518(2)
  H(14) .723(2) -.023(4) .572(2)
  H(24) .266(2) .227(4) -.136(2)
  H(4) .433(2) .028(4) .119(2)
  H(15) .968(3) .745(5) .703(2)
  H(21) .364(2) .201(4) .014(2)
  H(23) .322(2) .088(4) -.164(2)
  H(5) .709(2) .238(4) .316(2)
  H(20) .399(2) .376(4) -.085(2)
  H(7) .625(2) .192(4) .501(2)
  H(1) .844(2) .216(4) .756(2)
  H(16) 1.032(3) .493(5) .667(2)
  H(2) .875(2) .308(4) .900(2)
  H(8) .760(2) .248(4) .630(2)
  H(17) .992(3) .611(5) .592(2)
  H(18) .867(3) .692(4) .619(2)
  H(13) .774(2) -.091(4) .516(2)
  H(25) .954(2) .721(5) .839(2)
  H(27) .639(2) .336(4) .168(2)
  H(26) .921(3) .569(5) .927(3)
  H(28) .226(3) .534(6) -.363(3)
  H(29) .243(3) .377(5) -.384(3)
  H(30) .154(3) .425(6) -.386(3)
  H(31) .314(2) .212(4) -.280(2)
loop_
_geom_bond_atom_site_label_1
_geom_bond_atom_site_label_2
_geom_bond_distance
  O(1) C(2) 1.229(5)
  O(2) C(17) 1.237(5)
  O(3) C(22) 1.365(4)
  O(3) C(26) 1.431(5)
  O(4) C(30) 1.227(5)
  N(1) C(2) 1.382(5)
  N(1) C(10) 1.441(5)
  N(1) C(11) 1.480(5)
  N(2) C(13) 1.472(5)
  N(2) C(15) 1.461(5)
  N(2) C(17) 1.338(5)
  N(3) C(28) 1.450(5)
  N(3) C(30) 1.330(5)
  C(2) C(3) 1.493(6)
  C(3) C(4) 1.510(7)
  C(4) C(9) 1.500(6)
  C(5) C(6) 1.370(7)
  C(5) C(9) 1.391(6)
  C(6) C(7) 1.357(7)
  C(7) C(8) 1.392(6)
  C(8) C(10) 1.392(5)
  C(9) C(10) 1.393(6)
  C(11) C(12) 1.520(6)
  C(11) C(16) 1.532(6)
  C(12) C(13) 1.523(6)
  C(15) C(16) 1.514(6)
  C(17) C(19) 1.494(5)
  C(19) C(20) 1.382(6)
  C(19) C(24) 1.381(6)
  C(20) C(21) 1.386(6)
  C(21) C(22) 1.379(6)
  C(22) C(23) 1.381(5)
  C(23) C(24) 1.388(5)
  C(26) C(27) 1.504(6)
  C(27) C(28) 1.509(6)
  C(30) C(31) 1.494(6)
_cod_database_code 2009480
