data_d5_molecule_0
loop_
_publ_author_name
'Jin, Song.'
'Zhou, Ran.'
'Scheuer, Ellen. M.'
'Adamchuk, Jennifer.'
'Rayburn, Lori. L.'
'DiSalvo, Francis. J.'
_journal_name_full
;
Inorganic Chemistry
;
_journal_page_first              2666
_journal_page_last               2674
_journal_volume                  40
_journal_year                    2001
_cell_length_a                   24.6648(12)
_cell_length_b                   19.8619(9)
_cell_length_c                   20.1365(10)
_cell_angle_alpha                90.00
_cell_angle_beta                 103.3240(10)
_cell_angle_gamma                90.00
_cell_measurement_temperature    163(2)
_diffrn_ambient_temperature      163(2)
_diffrn_radiation_monochromator  graphite
_diffrn_radiation_source         'fine-focus sealed tube'
_diffrn_radiation_type           MoK\a
_diffrn_radiation_wavelength     0.71073
_diffrn_reflns_theta_full        33.22
_diffrn_reflns_theta_max         33.22
_diffrn_reflns_limit_h_max       31
_diffrn_reflns_limit_h_min       -37
_diffrn_reflns_limit_k_max       29
_diffrn_reflns_limit_k_min       -30
_diffrn_reflns_limit_l_max       28
_diffrn_reflns_limit_l_min       -30
_cod_src_refine_ls_wR_factor_ref 0.0590
_cod_src_refine_ls_R_factor_gt   0.0250
_cod_src_refine_ls_R_factor_all  0.0396
_cod_src_chemical_formula_moiety 'W6 S8 (PC12H27)6'
_cod_src_chemical_formula_sum    'C72 H162 P6 S8 W6'
_cod_src_refine_ls_wR_factor_gt  0.0506
_audit_creation_method
'Id: cif_molecule 2320 2013-10-24 05:30:23Z saulius'
_chemical_formula_sum            'C72 H162 P6 S8 W6'
_cod_data_source_file            1004001-disorder.cif
_cod_data_source_block           d5
_symmetry_space_group_name_H-M   'P 1'
loop_ _symmetry_equiv_pos_as_xyz 'x, y, z'
loop_
_atom_site_label
_atom_site_type_symbol
_atom_site_fract_x
_atom_site_fract_y
_atom_site_fract_z
_atom_site_U_iso_or_equiv
_atom_site_occupancy
_atom_site_disorder_assembly
_atom_site_disorder_group
P1 P 0.187360 0.541490 0.471000 0.02516(16) 1 . .
P2 P 0.411140 0.681640 0.464870 0.02415(15) 1 . .
P3 P 0.312410 0.703920 0.718490 0.03089(19) 1 . .
S1 S 0.311760 0.625830 0.559520 0.02175(14) 1 . .
S2 S 0.262170 0.657000 0.386430 0.02124(14) 1 . .
S3 S 0.136620 0.710880 0.417630 0.02330(14) 1 . .
S4 S 0.186440 0.680700 0.590690 0.02235(14) 1 . .
W1 W 0.221998 0.661077 0.487536 0.01761(3) 1 . .
W2 W 0.318507 0.720290 0.483260 0.01700(3) 1 . .
W3 W 0.277213 0.732942 0.594292 0.01748(3) 1 . .
C101 C 0.133300 0.520100 0.517500 0.0234(16) 0.533(8) A 1
C102 C 0.080000 0.560500 0.499400 0.0297(15) 0.533(8) A 1
C103 C 0.039600 0.545800 0.545300 0.046(2) 0.533(8) A 1
C104 C 0.062400 0.565000 0.615600 0.061(3) 0.533(8) A 1
C105 C 0.150630 0.519640 0.383770 0.0318(7) 1 A .
C106 C 0.131940 0.447000 0.370220 0.0426(9) 1 . .
C107 C 0.100280 0.434000 0.297900 0.0516(11) 1 A .
C108 C 0.084700 0.361100 0.283800 0.0760(18) 1 . .
C109 C 0.241670 0.477560 0.494100 0.0333(8) 1 A .
C110 C 0.286320 0.478700 0.453500 0.0333(8) 1 . .
C111 C 0.336800 0.436700 0.487300 0.0528(11) 1 A .
C112 C 0.381930 0.437600 0.448700 0.0576(12) 1 . .
C201 C 0.408700 0.647700 0.379100 0.0270(17) 0.734(12) B 1
C202 C 0.392000 0.697900 0.321400 0.0305(12) 0.734(12) B 1
C203 C 0.376600 0.668300 0.250800 0.0493(19) 0.734(12) B 1
C204 C 0.423600 0.635100 0.228700 0.174(8) 0.734(12) B 1
C205 C 0.445690 0.616360 0.523720 0.0344(7) 1 B .
C206 C 0.463830 0.638100 0.598290 0.0463(10) 1 . .
C207 C 0.499200 0.584800 0.646500 0.057(3) 0.52(2) B 1
C208 C 0.462200 0.521900 0.649700 0.068(4) 0.52(2) B 1
C209 C 0.463580 0.748620 0.472930 0.0300(7) 1 B .
C210 C 0.521550 0.728800 0.465400 0.0405(8) 1 . .
C211 C 0.561110 0.787000 0.470000 0.0517(11) 1 B .
C212 C 0.617940 0.766200 0.461800 0.0619(13) 1 . .
C301 C 0.331100 0.620300 0.739300 0.033(2) 0.64(3) C 1
C302 C 0.279500 0.574100 0.724700 0.039(3) 0.64(3) C 1
C303 C 0.292500 0.501400 0.739500 0.051(4) 0.64(3) C 1
C304 C 0.241800 0.457400 0.727700 0.062(4) 0.64(3) C 1
C305 C 0.381700 0.750100 0.758300 0.0340(18) 0.610(10) C 1
C306 C 0.376800 0.827300 0.764300 0.0363(16) 0.610(10) C 1
C307 C 0.431500 0.863800 0.773600 0.058(2) 0.610(10) C 1
C308 C 0.473300 0.844200 0.837300 0.092(4) 0.610(10) C 1
C309 C 0.266470 0.729690 0.773690 0.0286(7) 1 C .
C310 C 0.284450 0.709190 0.848900 0.0401(9) 1 . .
C311 C 0.245420 0.734570 0.892210 0.0403(9) 1 C .
C312 C 0.245940 0.809800 0.900500 0.0477(10) 1 . .
H10A H 0.123700 0.471900 0.509300 0.028 0.533(8) A 1
H10B H 0.149500 0.525500 0.566900 0.028 0.533(8) A 1
H10C H 0.061000 0.550800 0.451400 0.036 0.533(8) A 1
H10D H 0.004400 0.570700 0.527700 0.056 0.533(8) A 1
H10E H 0.030800 0.497100 0.543300 0.056 0.533(8) A 1
H10F H 0.035200 0.555100 0.642900 0.091 0.533(8) A 1
H10G H 0.070800 0.613300 0.617900 0.091 0.533(8) A 1
H10H H 0.096700 0.539500 0.633600 0.091 0.533(8) A 1
H10I H 0.117300 0.548800 0.371000 0.038 1 . .
H10J H 0.165200 0.417500 0.380600 0.051 1 A .
H10K H 0.108000 0.434600 0.401600 0.051 1 . .
H10L H 0.065900 0.461500 0.288300 0.062 1 . .
H10M H 0.123300 0.448700 0.266300 0.062 1 . .
H10N H 0.064200 0.356100 0.236200 0.114 1 A .
H10O H 0.061100 0.346300 0.314100 0.114 1 . .
H10P H 0.118500 0.333600 0.291900 0.114 1 . .
H10Q H 0.259900 0.483100 0.543000 0.040 1 . .
H10R H 0.223700 0.432700 0.488600 0.040 1 . .
H10Y H 0.175200 0.531000 0.352900 0.038 1 . .
H10Z H 0.089500 0.609000 0.502600 0.036 0.533(8) A 1
H11A H 0.298200 0.525800 0.449100 0.040 1 A .
H11B H 0.270600 0.461100 0.407100 0.040 1 . .
H11C H 0.352000 0.453900 0.534000 0.063 1 . .
H11D H 0.324800 0.389600 0.491200 0.063 1 . .
H11E H 0.413300 0.409900 0.472800 0.086 1 A .
H11F H 0.394600 0.483900 0.445400 0.086 1 . .
H11G H 0.367500 0.419400 0.402800 0.086 1 . .
H20A H 0.445900 0.629500 0.378400 0.032 0.734(12) B 1
H20B H 0.382000 0.609600 0.370700 0.032 0.734(12) B 1
H20C H 0.359800 0.724200 0.328900 0.037 0.734(12) B 1
H20D H 0.423200 0.729700 0.323500 0.037 0.734(12) B 1
H20E H 0.346500 0.634900 0.249000 0.059 0.734(12) B 1
H20F H 0.361700 0.704600 0.217900 0.059 0.734(12) B 1
H20G H 0.410400 0.617200 0.182500 0.261 0.734(12) B 1
H20H H 0.438000 0.598100 0.260100 0.261 0.734(12) B 1
H20I H 0.453200 0.668000 0.229200 0.261 0.734(12) B 1
H20J H 0.420100 0.577600 0.520800 0.041 1 . .
H20K H 0.479000 0.600700 0.508500 0.041 1 . .
H20L H 0.430200 0.648500 0.615300 0.056 0.52(2) B 1
H20M H 0.485800 0.680100 0.600700 0.056 0.52(2) B 1
H20N H 0.532100 0.571800 0.629000 0.068 0.52(2) B 1
H20O H 0.448900 0.783400 0.438200 0.036 1 . .
H20P H 0.483400 0.489000 0.681700 0.102 0.52(2) B 1
H20Q H 0.451000 0.501600 0.604200 0.102 0.52(2) B 1
H20T H 0.518100 0.706300 0.420700 0.049 1 . .
H20W H 0.467500 0.769900 0.518200 0.036 1 . .
H20X H 0.512600 0.604000 0.692800 0.068 0.52(2) B 1
H21A H 0.565000 0.809300 0.514900 0.062 1 . .
H21B H 0.545200 0.820300 0.434200 0.062 1 . .
H21C H 0.641900 0.806000 0.465200 0.093 1 B .
H21D H 0.614500 0.745000 0.417000 0.093 1 . .
H21E H 0.634300 0.734100 0.497700 0.093 1 . .
H30A H 0.357700 0.604900 0.712300 0.040 0.64(3) C 1
H30B H 0.350000 0.617300 0.788300 0.040 0.64(3) C 1
H30C H 0.253600 0.589400 0.752600 0.047 0.64(3) C 1
H30D H 0.260100 0.578800 0.676100 0.047 0.64(3) C 1
H30E H 0.313200 0.496700 0.787600 0.062 0.64(3) C 1
H30F H 0.317100 0.485400 0.710200 0.062 0.64(3) C 1
H30G H 0.253000 0.410500 0.738300 0.093 0.64(3) C 1
H30H H 0.221500 0.460700 0.679900 0.093 0.64(3) C 1
H30I H 0.217600 0.472100 0.757300 0.093 0.64(3) C 1
H30J H 0.396900 0.731500 0.804500 0.041 0.610(10) C 1
H30K H 0.408900 0.740200 0.730300 0.041 0.610(10) C 1
H30L H 0.351000 0.844400 0.722500 0.044 0.610(10) C 1
H30M H 0.447400 0.854600 0.733700 0.069 0.610(10) C 1
H30N H 0.424600 0.912800 0.774800 0.069 0.610(10) C 1
H30O H 0.507500 0.870400 0.840800 0.138 0.610(10) C 1
H30P H 0.481800 0.796100 0.835600 0.138 0.610(10) C 1
H30Q H 0.457900 0.853200 0.877200 0.138 0.610(10) C 1
H30R H 0.262900 0.779300 0.771500 0.034 1 . .
H30S H 0.229000 0.710600 0.754700 0.034 1 . .
H30Z H 0.360200 0.837600 0.803500 0.044 0.610(10) C 1
H31A H 0.286400 0.659500 0.851800 0.048 1 C .
H31B H 0.322300 0.726900 0.868100 0.048 1 . .
H31C H 0.207000 0.719900 0.870900 0.048 1 . .
H31D H 0.256200 0.713500 0.937900 0.048 1 . .
H31E H 0.220200 0.822700 0.928800 0.072 1 C .
H31F H 0.234300 0.831100 0.855600 0.072 1 . .
H31G H 0.283700 0.824700 0.922500 0.072 1 . .
H20R_1 H 0.428900 0.535500 0.665100 0.102 0.52(2) B 1
H20S_1 H 0.537500 0.695800 0.501400 0.049 1 B .
P1_7_555 P 0.312640 0.958510 0.529000 0.02516(16) 1 . .
P2_7_555 P 0.088860 0.818360 0.535130 0.02415(15) 1 . .
P3_7_555 P 0.187590 0.796080 0.281510 0.03089(19) 1 . .
S1_7_555 S 0.188240 0.874170 0.440480 0.02175(14) 1 . .
S2_7_555 S 0.237830 0.843000 0.613570 0.02124(14) 1 . .
S3_7_555 S 0.363380 0.789120 0.582370 0.02330(14) 1 . .
S4_7_555 S 0.313560 0.819300 0.409310 0.02235(14) 1 . .
W1_7_555 W 0.278002 0.838923 0.512464 0.01761(3) 1 . .
W2_7_555 W 0.181493 0.779710 0.516740 0.01700(3) 1 . .
W3_7_555 W 0.222787 0.767058 0.405708 0.01748(3) 1 . .
C101_7_555 C 0.366700 0.979900 0.482500 0.0234(16) 0.533(8) A 1
C102_7_555 C 0.420000 0.939500 0.500600 0.0297(15) 0.533(8) A 1
C103_7_555 C 0.460400 0.954200 0.454700 0.046(2) 0.533(8) A 1
C104_7_555 C 0.437600 0.935000 0.384400 0.061(3) 0.533(8) A 1
C105_7_555 C 0.349370 0.980360 0.616230 0.0318(7) 1 A .
C106_7_565 C 0.368060 1.053000 0.629780 0.0426(9) 1 . .
C107_7_565 C 0.399720 1.066000 0.702100 0.0516(11) 1 A .
C108_7_565 C 0.415300 1.138900 0.716200 0.0760(18) 1 . .
C109_7_565 C 0.258330 1.022440 0.505900 0.0333(8) 1 A .
C110_7_565 C 0.213680 1.021300 0.546500 0.0333(8) 1 . .
C111_7_565 C 0.163200 1.063300 0.512700 0.0528(11) 1 A .
C112_7_565 C 0.118070 1.062400 0.551300 0.0576(12) 1 . .
C201_7_555 C 0.091300 0.852300 0.620900 0.0270(17) 0.734(12) B 1
C202_7_555 C 0.108000 0.802100 0.678600 0.0305(12) 0.734(12) B 1
C203_7_555 C 0.123400 0.831700 0.749200 0.0493(19) 0.734(12) B 1
C204_7_555 C 0.076400 0.864900 0.771300 0.174(8) 0.734(12) B 1
C205_7_555 C 0.054310 0.883640 0.476280 0.0344(7) 1 B .
C206_7_555 C 0.036170 0.861900 0.401710 0.0463(10) 1 . .
C207_7_555 C 0.000800 0.915200 0.353500 0.057(3) 0.52(2) B 1
C208_7_555 C 0.037800 0.978100 0.350300 0.068(4) 0.52(2) B 1
C209_7_555 C 0.036420 0.751380 0.527070 0.0300(7) 1 B .
C210_7_455 C -0.021550 0.771200 0.534600 0.0405(8) 1 . .
C211_7_455 C -0.061110 0.713000 0.530000 0.0517(11) 1 B .
C212_7_455 C -0.117940 0.733800 0.538200 0.0619(13) 1 . .
C301_7_555 C 0.168900 0.879700 0.260700 0.033(2) 0.64(3) C 1
C302_7_555 C 0.220500 0.925900 0.275300 0.039(3) 0.64(3) C 1
C303_7_555 C 0.207500 0.998600 0.260500 0.051(4) 0.64(3) C 1
C304_7_565 C 0.258200 1.042600 0.272300 0.062(4) 0.64(3) C 1
C305_7_555 C 0.118300 0.749900 0.241700 0.0340(18) 0.610(10) C 1
C306_7_555 C 0.123200 0.672700 0.235700 0.0363(16) 0.610(10) C 1
C307_7_555 C 0.068500 0.636200 0.226400 0.058(2) 0.610(10) C 1
C308_7_555 C 0.026700 0.655800 0.162700 0.092(4) 0.610(10) C 1
C309_7_555 C 0.233530 0.770310 0.226310 0.0286(7) 1 C .
C310_7_555 C 0.215550 0.790810 0.151100 0.0401(9) 1 . .
C311_7_555 C 0.254580 0.765430 0.107790 0.0403(9) 1 C .
C312_7_555 C 0.254060 0.690200 0.099500 0.0477(10) 1 . .
H10A_7_565 H 0.376300 1.028100 0.490700 0.028 0.533(8) A 1
H10B_7_555 H 0.350500 0.974500 0.433100 0.028 0.533(8) A 1
H10C_7_555 H 0.439000 0.949200 0.548600 0.036 0.533(8) A 1
H10D_7_555 H 0.495600 0.929300 0.472300 0.056 0.533(8) A 1
H10E_7_565 H 0.469200 1.002900 0.456700 0.056 0.533(8) A 1
H10F_7_555 H 0.464800 0.944900 0.357100 0.091 0.533(8) A 1
H10G_7_555 H 0.429200 0.886700 0.382100 0.091 0.533(8) A 1
H10H_7_555 H 0.403300 0.960500 0.366400 0.091 0.533(8) A 1
H10I_7_555 H 0.382700 0.951200 0.629000 0.038 1 . .
H10J_7_565 H 0.334800 1.082500 0.619400 0.051 1 A .
H10K_7_565 H 0.392000 1.065400 0.598400 0.051 1 . .
H10L_7_565 H 0.434100 1.038500 0.711700 0.062 1 . .
H10M_7_565 H 0.376700 1.051300 0.733700 0.062 1 . .
H10N_7_565 H 0.435800 1.143900 0.763800 0.114 1 A .
H10O_7_565 H 0.438900 1.153700 0.685900 0.114 1 . .
H10P_7_565 H 0.381500 1.166400 0.708100 0.114 1 . .
H10Q_7_565 H 0.240100 1.016900 0.457000 0.040 1 . .
H10R_7_565 H 0.276300 1.067300 0.511400 0.040 1 . .
H10Y_7_555 H 0.324800 0.969000 0.647100 0.038 1 . .
H10Z_7_555 H 0.410500 0.891000 0.497400 0.036 0.533(8) A 1
H11A_7_555 H 0.201800 0.974200 0.550900 0.040 1 A .
H11B_7_565 H 0.229400 1.038900 0.592900 0.040 1 . .
H11C_7_565 H 0.148000 1.046100 0.466000 0.063 1 . .
H11D_7_565 H 0.175200 1.110400 0.508800 0.063 1 . .
H11E_7_565 H 0.086700 1.090100 0.527200 0.086 1 A .
H11F_7_565 H 0.105400 1.016100 0.554600 0.086 1 . .
H11G_7_565 H 0.132500 1.080600 0.597200 0.086 1 . .
H20A_7_555 H 0.054100 0.870500 0.621600 0.032 0.734(12) B 1
H20B_7_555 H 0.118000 0.890400 0.629300 0.032 0.734(12) B 1
H20C_7_555 H 0.140200 0.775800 0.671100 0.037 0.734(12) B 1
H20D_7_555 H 0.076800 0.770300 0.676500 0.037 0.734(12) B 1
H20E_7_555 H 0.153500 0.865100 0.751000 0.059 0.734(12) B 1
H20F_7_555 H 0.138300 0.795400 0.782100 0.059 0.734(12) B 1
H20G_7_555 H 0.089600 0.882800 0.817500 0.261 0.734(12) B 1
H20H_7_555 H 0.062000 0.901900 0.739900 0.261 0.734(12) B 1
H20I_7_555 H 0.046800 0.832000 0.770800 0.261 0.734(12) B 1
H20J_7_555 H 0.079900 0.922400 0.479200 0.041 1 . .
H20K_7_555 H 0.021000 0.899300 0.491500 0.041 1 . .
H20L_7_555 H 0.069800 0.851500 0.384700 0.056 0.52(2) B 1
H20M_7_555 H 0.014200 0.819900 0.399300 0.056 0.52(2) B 1
H20N_7_455 H -0.032100 0.928200 0.371000 0.068 0.52(2) B 1
H20O_7_555 H 0.051100 0.716600 0.561800 0.036 1 . .
H20P_7_565 H 0.016600 1.011000 0.318300 0.102 0.52(2) B 1
H20Q_7_555 H 0.049000 0.998400 0.395800 0.102 0.52(2) B 1
H20T_7_455 H -0.018100 0.793700 0.579300 0.049 1 . .
H20W_7_555 H 0.032500 0.730100 0.481800 0.036 1 . .
H20X_7_455 H -0.012600 0.896000 0.307200 0.068 0.52(2) B 1
H21A_7_455 H -0.065000 0.690700 0.485100 0.062 1 . .
H21B_7_455 H -0.045200 0.679700 0.565800 0.062 1 . .
H21C_7_455 H -0.141900 0.694000 0.534800 0.093 1 B .
H21D_7_455 H -0.114500 0.755000 0.583000 0.093 1 . .
H21E_7_455 H -0.134300 0.765900 0.502300 0.093 1 . .
H30A_7_555 H 0.142300 0.895100 0.287700 0.040 0.64(3) C 1
H30B_7_555 H 0.150000 0.882700 0.211700 0.040 0.64(3) C 1
H30C_7_555 H 0.246400 0.910600 0.247400 0.047 0.64(3) C 1
H30D_7_555 H 0.239900 0.921200 0.323900 0.047 0.64(3) C 1
H30E_7_565 H 0.186800 1.003300 0.212400 0.062 0.64(3) C 1
H30F_7_565 H 0.182900 1.014600 0.289800 0.062 0.64(3) C 1
H30G_7_565 H 0.247000 1.089500 0.261700 0.093 0.64(3) C 1
H30H_7_565 H 0.278500 1.039300 0.320100 0.093 0.64(3) C 1
H30I_7_565 H 0.282400 1.027900 0.242700 0.093 0.64(3) C 1
H30J_7_555 H 0.103100 0.768500 0.195500 0.041 0.610(10) C 1
H30K_7_555 H 0.091100 0.759800 0.269700 0.041 0.610(10) C 1
H30L_7_555 H 0.149000 0.655600 0.277500 0.044 0.610(10) C 1
H30M_7_555 H 0.052600 0.645400 0.266300 0.069 0.610(10) C 1
H30N_7_555 H 0.075400 0.587200 0.225200 0.069 0.610(10) C 1
H30O_7_455 H -0.007500 0.629600 0.159200 0.138 0.610(10) C 1
H30P_7_555 H 0.018200 0.703900 0.164400 0.138 0.610(10) C 1
H30Q_7_555 H 0.042100 0.646800 0.122800 0.138 0.610(10) C 1
H30R_7_555 H 0.237100 0.720700 0.228500 0.034 1 . .
H30S_7_555 H 0.271000 0.789400 0.245300 0.034 1 . .
H30Z_7_555 H 0.139800 0.662400 0.196500 0.044 0.610(10) C 1
H31A_7_555 H 0.213600 0.840500 0.148200 0.048 1 C .
H31B_7_555 H 0.177700 0.773100 0.131900 0.048 1 . .
H31C_7_555 H 0.293000 0.780100 0.129100 0.048 1 . .
H31D_7_555 H 0.243800 0.786500 0.062100 0.048 1 . .
H31E_7_555 H 0.279800 0.677300 0.071200 0.072 1 C .
H31F_7_555 H 0.265700 0.668900 0.144400 0.072 1 . .
H31G_7_555 H 0.216300 0.675300 0.077500 0.072 1 . .
H20R_1_7_555 H 0.071100 0.964500 0.334900 0.102 0.52(2) B 1
H20S_1_7_455 H -0.037500 0.804200 0.498600 0.049 1 B .
loop_
_cod_molecule_atom_label
_cod_molecule_atom_orig_label
_cod_molecule_atom_symmetry
_cod_molecule_atom_symop_id
_cod_molecule_atom_symop_xyz
_cod_molecule_atom_transl_id
_cod_molecule_atom_transl_x
_cod_molecule_atom_transl_y
_cod_molecule_atom_transl_z
_cod_molecule_atom_mult
_cod_molecule_atom_mult_ratio
_cod_molecule_atom_assembly
_cod_molecule_atom_group
P1 P1 1_555 1 'x, y, z' 555 0 0 0 8 1 . .
P2 P2 1_555 1 'x, y, z' 555 0 0 0 8 1 . .
P3 P3 1_555 1 'x, y, z' 555 0 0 0 8 1 . .
S1 S1 1_555 1 'x, y, z' 555 0 0 0 8 1 . .
S2 S2 1_555 1 'x, y, z' 555 0 0 0 8 1 . .
S3 S3 1_555 1 'x, y, z' 555 0 0 0 8 1 . .
S4 S4 1_555 1 'x, y, z' 555 0 0 0 8 1 . .
W1 W1 1_555 1 'x, y, z' 555 0 0 0 8 1 . .
W2 W2 1_555 1 'x, y, z' 555 0 0 0 8 1 . .
W3 W3 1_555 1 'x, y, z' 555 0 0 0 8 1 . .
C101 C101 1_555 1 'x, y, z' 555 0 0 0 8 1 A 1
C102 C102 1_555 1 'x, y, z' 555 0 0 0 8 1 A 1
C103 C103 1_555 1 'x, y, z' 555 0 0 0 8 1 A 1
C104 C104 1_555 1 'x, y, z' 555 0 0 0 8 1 A 1
C105 C105 1_555 1 'x, y, z' 555 0 0 0 8 1 A .
C106 C106 1_555 1 'x, y, z' 555 0 0 0 8 1 . .
C107 C107 1_555 1 'x, y, z' 555 0 0 0 8 1 A .
C108 C108 1_555 1 'x, y, z' 555 0 0 0 8 1 . .
C109 C109 1_555 1 'x, y, z' 555 0 0 0 8 1 A .
C110 C110 1_555 1 'x, y, z' 555 0 0 0 8 1 . .
C111 C111 1_555 1 'x, y, z' 555 0 0 0 8 1 A .
C112 C112 1_555 1 'x, y, z' 555 0 0 0 8 1 . .
C201 C201 1_555 1 'x, y, z' 555 0 0 0 8 1 B 1
C202 C202 1_555 1 'x, y, z' 555 0 0 0 8 1 B 1
C203 C203 1_555 1 'x, y, z' 555 0 0 0 8 1 B 1
C204 C204 1_555 1 'x, y, z' 555 0 0 0 8 1 B 1
C205 C205 1_555 1 'x, y, z' 555 0 0 0 8 1 B .
C206 C206 1_555 1 'x, y, z' 555 0 0 0 8 1 . .
C207 C207 1_555 1 'x, y, z' 555 0 0 0 8 1 B 1
C208 C208 1_555 1 'x, y, z' 555 0 0 0 8 1 B 1
C209 C209 1_555 1 'x, y, z' 555 0 0 0 8 1 B .
C210 C210 1_555 1 'x, y, z' 555 0 0 0 8 1 . .
C211 C211 1_555 1 'x, y, z' 555 0 0 0 8 1 B .
C212 C212 1_555 1 'x, y, z' 555 0 0 0 8 1 . .
C301 C301 1_555 1 'x, y, z' 555 0 0 0 8 1 C 1
C302 C302 1_555 1 'x, y, z' 555 0 0 0 8 1 C 1
C303 C303 1_555 1 'x, y, z' 555 0 0 0 8 1 C 1
C304 C304 1_555 1 'x, y, z' 555 0 0 0 8 1 C 1
C305 C305 1_555 1 'x, y, z' 555 0 0 0 8 1 C 1
C306 C306 1_555 1 'x, y, z' 555 0 0 0 8 1 C 1
C307 C307 1_555 1 'x, y, z' 555 0 0 0 8 1 C 1
C308 C308 1_555 1 'x, y, z' 555 0 0 0 8 1 C 1
C309 C309 1_555 1 'x, y, z' 555 0 0 0 8 1 C .
C310 C310 1_555 1 'x, y, z' 555 0 0 0 8 1 . .
C311 C311 1_555 1 'x, y, z' 555 0 0 0 8 1 C .
C312 C312 1_555 1 'x, y, z' 555 0 0 0 8 1 . .
H10A H10A 1_555 1 'x, y, z' 555 0 0 0 8 1 A 1
H10B H10B 1_555 1 'x, y, z' 555 0 0 0 8 1 A 1
H10C H10C 1_555 1 'x, y, z' 555 0 0 0 8 1 A 1
H10D H10D 1_555 1 'x, y, z' 555 0 0 0 8 1 A 1
H10E H10E 1_555 1 'x, y, z' 555 0 0 0 8 1 A 1
H10F H10F 1_555 1 'x, y, z' 555 0 0 0 8 1 A 1
H10G H10G 1_555 1 'x, y, z' 555 0 0 0 8 1 A 1
H10H H10H 1_555 1 'x, y, z' 555 0 0 0 8 1 A 1
H10I H10I 1_555 1 'x, y, z' 555 0 0 0 8 1 . .
H10J H10J 1_555 1 'x, y, z' 555 0 0 0 8 1 A .
H10K H10K 1_555 1 'x, y, z' 555 0 0 0 8 1 . .
H10L H10L 1_555 1 'x, y, z' 555 0 0 0 8 1 . .
H10M H10M 1_555 1 'x, y, z' 555 0 0 0 8 1 . .
H10N H10N 1_555 1 'x, y, z' 555 0 0 0 8 1 A .
H10O H10O 1_555 1 'x, y, z' 555 0 0 0 8 1 . .
H10P H10P 1_555 1 'x, y, z' 555 0 0 0 8 1 . .
H10Q H10Q 1_555 1 'x, y, z' 555 0 0 0 8 1 . .
H10R H10R 1_555 1 'x, y, z' 555 0 0 0 8 1 . .
H10Y H10Y 1_555 1 'x, y, z' 555 0 0 0 8 1 . .
H10Z H10Z 1_555 1 'x, y, z' 555 0 0 0 8 1 A 1
H11A H11A 1_555 1 'x, y, z' 555 0 0 0 8 1 A .
H11B H11B 1_555 1 'x, y, z' 555 0 0 0 8 1 . .
H11C H11C 1_555 1 'x, y, z' 555 0 0 0 8 1 . .
H11D H11D 1_555 1 'x, y, z' 555 0 0 0 8 1 . .
H11E H11E 1_555 1 'x, y, z' 555 0 0 0 8 1 A .
H11F H11F 1_555 1 'x, y, z' 555 0 0 0 8 1 . .
H11G H11G 1_555 1 'x, y, z' 555 0 0 0 8 1 . .
H20A H20A 1_555 1 'x, y, z' 555 0 0 0 8 1 B 1
H20B H20B 1_555 1 'x, y, z' 555 0 0 0 8 1 B 1
H20C H20C 1_555 1 'x, y, z' 555 0 0 0 8 1 B 1
H20D H20D 1_555 1 'x, y, z' 555 0 0 0 8 1 B 1
H20E H20E 1_555 1 'x, y, z' 555 0 0 0 8 1 B 1
H20F H20F 1_555 1 'x, y, z' 555 0 0 0 8 1 B 1
H20G H20G 1_555 1 'x, y, z' 555 0 0 0 8 1 B 1
H20H H20H 1_555 1 'x, y, z' 555 0 0 0 8 1 B 1
H20I H20I 1_555 1 'x, y, z' 555 0 0 0 8 1 B 1
H20J H20J 1_555 1 'x, y, z' 555 0 0 0 8 1 . .
H20K H20K 1_555 1 'x, y, z' 555 0 0 0 8 1 . .
H20L H20L 1_555 1 'x, y, z' 555 0 0 0 8 1 B 1
H20M H20M 1_555 1 'x, y, z' 555 0 0 0 8 1 B 1
H20N H20N 1_555 1 'x, y, z' 555 0 0 0 8 1 B 1
H20O H20O 1_555 1 'x, y, z' 555 0 0 0 8 1 . .
H20P H20P 1_555 1 'x, y, z' 555 0 0 0 8 1 B 1
H20Q H20Q 1_555 1 'x, y, z' 555 0 0 0 8 1 B 1
H20T H20T 1_555 1 'x, y, z' 555 0 0 0 8 1 . .
H20W H20W 1_555 1 'x, y, z' 555 0 0 0 8 1 . .
H20X H20X 1_555 1 'x, y, z' 555 0 0 0 8 1 B 1
H21A H21A 1_555 1 'x, y, z' 555 0 0 0 8 1 . .
H21B H21B 1_555 1 'x, y, z' 555 0 0 0 8 1 . .
H21C H21C 1_555 1 'x, y, z' 555 0 0 0 8 1 B .
H21D H21D 1_555 1 'x, y, z' 555 0 0 0 8 1 . .
H21E H21E 1_555 1 'x, y, z' 555 0 0 0 8 1 . .
H30A H30A 1_555 1 'x, y, z' 555 0 0 0 8 1 C 1
H30B H30B 1_555 1 'x, y, z' 555 0 0 0 8 1 C 1
H30C H30C 1_555 1 'x, y, z' 555 0 0 0 8 1 C 1
H30D H30D 1_555 1 'x, y, z' 555 0 0 0 8 1 C 1
H30E H30E 1_555 1 'x, y, z' 555 0 0 0 8 1 C 1
H30F H30F 1_555 1 'x, y, z' 555 0 0 0 8 1 C 1
H30G H30G 1_555 1 'x, y, z' 555 0 0 0 8 1 C 1
H30H H30H 1_555 1 'x, y, z' 555 0 0 0 8 1 C 1
H30I H30I 1_555 1 'x, y, z' 555 0 0 0 8 1 C 1
H30J H30J 1_555 1 'x, y, z' 555 0 0 0 8 1 C 1
H30K H30K 1_555 1 'x, y, z' 555 0 0 0 8 1 C 1
H30L H30L 1_555 1 'x, y, z' 555 0 0 0 8 1 C 1
H30M H30M 1_555 1 'x, y, z' 555 0 0 0 8 1 C 1
H30N H30N 1_555 1 'x, y, z' 555 0 0 0 8 1 C 1
H30O H30O 1_555 1 'x, y, z' 555 0 0 0 8 1 C 1
H30P H30P 1_555 1 'x, y, z' 555 0 0 0 8 1 C 1
H30Q H30Q 1_555 1 'x, y, z' 555 0 0 0 8 1 C 1
H30R H30R 1_555 1 'x, y, z' 555 0 0 0 8 1 . .
H30S H30S 1_555 1 'x, y, z' 555 0 0 0 8 1 . .
H30Z H30Z 1_555 1 'x, y, z' 555 0 0 0 8 1 C 1
H31A H31A 1_555 1 'x, y, z' 555 0 0 0 8 1 C .
H31B H31B 1_555 1 'x, y, z' 555 0 0 0 8 1 . .
H31C H31C 1_555 1 'x, y, z' 555 0 0 0 8 1 . .
H31D H31D 1_555 1 'x, y, z' 555 0 0 0 8 1 . .
H31E H31E 1_555 1 'x, y, z' 555 0 0 0 8 1 C .
H31F H31F 1_555 1 'x, y, z' 555 0 0 0 8 1 . .
H31G H31G 1_555 1 'x, y, z' 555 0 0 0 8 1 . .
H20R_1 H20R_1 1_555 1 'x, y, z' 555 0 0 0 8 1 B 1
H20S_1 H20S_1 1_555 1 'x, y, z' 555 0 0 0 8 1 B .
P1_7_555 P1 7_555 7 '-x+1/2, -y+1/2, -z' 555 0 0 0 8 1 . .
P2_7_555 P2 7_555 7 '-x+1/2, -y+1/2, -z' 555 0 0 0 8 1 . .
P3_7_555 P3 7_555 7 '-x+1/2, -y+1/2, -z' 555 0 0 0 8 1 . .
S1_7_555 S1 7_555 7 '-x+1/2, -y+1/2, -z' 555 0 0 0 8 1 . .
S2_7_555 S2 7_555 7 '-x+1/2, -y+1/2, -z' 555 0 0 0 8 1 . .
S3_7_555 S3 7_555 7 '-x+1/2, -y+1/2, -z' 555 0 0 0 8 1 . .
S4_7_555 S4 7_555 7 '-x+1/2, -y+1/2, -z' 555 0 0 0 8 1 . .
W1_7_555 W1 7_555 7 '-x+1/2, -y+1/2, -z' 555 0 0 0 8 1 . .
W2_7_555 W2 7_555 7 '-x+1/2, -y+1/2, -z' 555 0 0 0 8 1 . .
W3_7_555 W3 7_555 7 '-x+1/2, -y+1/2, -z' 555 0 0 0 8 1 . .
C101_7_555 C101 7_555 7 '-x+1/2, -y+1/2, -z' 555 0 0 0 8 1 A 1
C102_7_555 C102 7_555 7 '-x+1/2, -y+1/2, -z' 555 0 0 0 8 1 A 1
C103_7_555 C103 7_555 7 '-x+1/2, -y+1/2, -z' 555 0 0 0 8 1 A 1
C104_7_555 C104 7_555 7 '-x+1/2, -y+1/2, -z' 555 0 0 0 8 1 A 1
C105_7_555 C105 7_555 7 '-x+1/2, -y+1/2, -z' 555 0 0 0 8 1 A .
C106_7_565 C106 7_565 7 '-x+1/2, -y+1/2, -z' 565 0 1 0 8 1 . .
C107_7_565 C107 7_565 7 '-x+1/2, -y+1/2, -z' 565 0 1 0 8 1 A .
C108_7_565 C108 7_565 7 '-x+1/2, -y+1/2, -z' 565 0 1 0 8 1 . .
C109_7_565 C109 7_565 7 '-x+1/2, -y+1/2, -z' 565 0 1 0 8 1 A .
C110_7_565 C110 7_565 7 '-x+1/2, -y+1/2, -z' 565 0 1 0 8 1 . .
C111_7_565 C111 7_565 7 '-x+1/2, -y+1/2, -z' 565 0 1 0 8 1 A .
C112_7_565 C112 7_565 7 '-x+1/2, -y+1/2, -z' 565 0 1 0 8 1 . .
C201_7_555 C201 7_555 7 '-x+1/2, -y+1/2, -z' 555 0 0 0 8 1 B 1
C202_7_555 C202 7_555 7 '-x+1/2, -y+1/2, -z' 555 0 0 0 8 1 B 1
C203_7_555 C203 7_555 7 '-x+1/2, -y+1/2, -z' 555 0 0 0 8 1 B 1
C204_7_555 C204 7_555 7 '-x+1/2, -y+1/2, -z' 555 0 0 0 8 1 B 1
C205_7_555 C205 7_555 7 '-x+1/2, -y+1/2, -z' 555 0 0 0 8 1 B .
C206_7_555 C206 7_555 7 '-x+1/2, -y+1/2, -z' 555 0 0 0 8 1 . .
C207_7_555 C207 7_555 7 '-x+1/2, -y+1/2, -z' 555 0 0 0 8 1 B 1
C208_7_555 C208 7_555 7 '-x+1/2, -y+1/2, -z' 555 0 0 0 8 1 B 1
C209_7_555 C209 7_555 7 '-x+1/2, -y+1/2, -z' 555 0 0 0 8 1 B .
C210_7_455 C210 7_455 7 '-x+1/2, -y+1/2, -z' 455 -1 0 0 8 1 . .
C211_7_455 C211 7_455 7 '-x+1/2, -y+1/2, -z' 455 -1 0 0 8 1 B .
C212_7_455 C212 7_455 7 '-x+1/2, -y+1/2, -z' 455 -1 0 0 8 1 . .
C301_7_555 C301 7_555 7 '-x+1/2, -y+1/2, -z' 555 0 0 0 8 1 C 1
C302_7_555 C302 7_555 7 '-x+1/2, -y+1/2, -z' 555 0 0 0 8 1 C 1
C303_7_555 C303 7_555 7 '-x+1/2, -y+1/2, -z' 555 0 0 0 8 1 C 1
C304_7_565 C304 7_565 7 '-x+1/2, -y+1/2, -z' 565 0 1 0 8 1 C 1
C305_7_555 C305 7_555 7 '-x+1/2, -y+1/2, -z' 555 0 0 0 8 1 C 1
C306_7_555 C306 7_555 7 '-x+1/2, -y+1/2, -z' 555 0 0 0 8 1 C 1
C307_7_555 C307 7_555 7 '-x+1/2, -y+1/2, -z' 555 0 0 0 8 1 C 1
C308_7_555 C308 7_555 7 '-x+1/2, -y+1/2, -z' 555 0 0 0 8 1 C 1
C309_7_555 C309 7_555 7 '-x+1/2, -y+1/2, -z' 555 0 0 0 8 1 C .
C310_7_555 C310 7_555 7 '-x+1/2, -y+1/2, -z' 555 0 0 0 8 1 . .
C311_7_555 C311 7_555 7 '-x+1/2, -y+1/2, -z' 555 0 0 0 8 1 C .
C312_7_555 C312 7_555 7 '-x+1/2, -y+1/2, -z' 555 0 0 0 8 1 . .
H10A_7_565 H10A 7_565 7 '-x+1/2, -y+1/2, -z' 565 0 1 0 8 1 A 1
H10B_7_555 H10B 7_555 7 '-x+1/2, -y+1/2, -z' 555 0 0 0 8 1 A 1
H10C_7_555 H10C 7_555 7 '-x+1/2, -y+1/2, -z' 555 0 0 0 8 1 A 1
H10D_7_555 H10D 7_555 7 '-x+1/2, -y+1/2, -z' 555 0 0 0 8 1 A 1
H10E_7_565 H10E 7_565 7 '-x+1/2, -y+1/2, -z' 565 0 1 0 8 1 A 1
H10F_7_555 H10F 7_555 7 '-x+1/2, -y+1/2, -z' 555 0 0 0 8 1 A 1
H10G_7_555 H10G 7_555 7 '-x+1/2, -y+1/2, -z' 555 0 0 0 8 1 A 1
H10H_7_555 H10H 7_555 7 '-x+1/2, -y+1/2, -z' 555 0 0 0 8 1 A 1
H10I_7_555 H10I 7_555 7 '-x+1/2, -y+1/2, -z' 555 0 0 0 8 1 . .
H10J_7_565 H10J 7_565 7 '-x+1/2, -y+1/2, -z' 565 0 1 0 8 1 A .
H10K_7_565 H10K 7_565 7 '-x+1/2, -y+1/2, -z' 565 0 1 0 8 1 . .
H10L_7_565 H10L 7_565 7 '-x+1/2, -y+1/2, -z' 565 0 1 0 8 1 . .
H10M_7_565 H10M 7_565 7 '-x+1/2, -y+1/2, -z' 565 0 1 0 8 1 . .
H10N_7_565 H10N 7_565 7 '-x+1/2, -y+1/2, -z' 565 0 1 0 8 1 A .
H10O_7_565 H10O 7_565 7 '-x+1/2, -y+1/2, -z' 565 0 1 0 8 1 . .
H10P_7_565 H10P 7_565 7 '-x+1/2, -y+1/2, -z' 565 0 1 0 8 1 . .
H10Q_7_565 H10Q 7_565 7 '-x+1/2, -y+1/2, -z' 565 0 1 0 8 1 . .
H10R_7_565 H10R 7_565 7 '-x+1/2, -y+1/2, -z' 565 0 1 0 8 1 . .
H10Y_7_555 H10Y 7_555 7 '-x+1/2, -y+1/2, -z' 555 0 0 0 8 1 . .
H10Z_7_555 H10Z 7_555 7 '-x+1/2, -y+1/2, -z' 555 0 0 0 8 1 A 1
H11A_7_555 H11A 7_555 7 '-x+1/2, -y+1/2, -z' 555 0 0 0 8 1 A .
H11B_7_565 H11B 7_565 7 '-x+1/2, -y+1/2, -z' 565 0 1 0 8 1 . .
H11C_7_565 H11C 7_565 7 '-x+1/2, -y+1/2, -z' 565 0 1 0 8 1 . .
H11D_7_565 H11D 7_565 7 '-x+1/2, -y+1/2, -z' 565 0 1 0 8 1 . .
H11E_7_565 H11E 7_565 7 '-x+1/2, -y+1/2, -z' 565 0 1 0 8 1 A .
H11F_7_565 H11F 7_565 7 '-x+1/2, -y+1/2, -z' 565 0 1 0 8 1 . .
H11G_7_565 H11G 7_565 7 '-x+1/2, -y+1/2, -z' 565 0 1 0 8 1 . .
H20A_7_555 H20A 7_555 7 '-x+1/2, -y+1/2, -z' 555 0 0 0 8 1 B 1
H20B_7_555 H20B 7_555 7 '-x+1/2, -y+1/2, -z' 555 0 0 0 8 1 B 1
H20C_7_555 H20C 7_555 7 '-x+1/2, -y+1/2, -z' 555 0 0 0 8 1 B 1
H20D_7_555 H20D 7_555 7 '-x+1/2, -y+1/2, -z' 555 0 0 0 8 1 B 1
H20E_7_555 H20E 7_555 7 '-x+1/2, -y+1/2, -z' 555 0 0 0 8 1 B 1
H20F_7_555 H20F 7_555 7 '-x+1/2, -y+1/2, -z' 555 0 0 0 8 1 B 1
H20G_7_555 H20G 7_555 7 '-x+1/2, -y+1/2, -z' 555 0 0 0 8 1 B 1
H20H_7_555 H20H 7_555 7 '-x+1/2, -y+1/2, -z' 555 0 0 0 8 1 B 1
H20I_7_555 H20I 7_555 7 '-x+1/2, -y+1/2, -z' 555 0 0 0 8 1 B 1
H20J_7_555 H20J 7_555 7 '-x+1/2, -y+1/2, -z' 555 0 0 0 8 1 . .
H20K_7_555 H20K 7_555 7 '-x+1/2, -y+1/2, -z' 555 0 0 0 8 1 . .
H20L_7_555 H20L 7_555 7 '-x+1/2, -y+1/2, -z' 555 0 0 0 8 1 B 1
H20M_7_555 H20M 7_555 7 '-x+1/2, -y+1/2, -z' 555 0 0 0 8 1 B 1
H20N_7_455 H20N 7_455 7 '-x+1/2, -y+1/2, -z' 455 -1 0 0 8 1 B 1
H20O_7_555 H20O 7_555 7 '-x+1/2, -y+1/2, -z' 555 0 0 0 8 1 . .
H20P_7_565 H20P 7_565 7 '-x+1/2, -y+1/2, -z' 565 0 1 0 8 1 B 1
H20Q_7_555 H20Q 7_555 7 '-x+1/2, -y+1/2, -z' 555 0 0 0 8 1 B 1
H20T_7_455 H20T 7_455 7 '-x+1/2, -y+1/2, -z' 455 -1 0 0 8 1 . .
H20W_7_555 H20W 7_555 7 '-x+1/2, -y+1/2, -z' 555 0 0 0 8 1 . .
H20X_7_455 H20X 7_455 7 '-x+1/2, -y+1/2, -z' 455 -1 0 0 8 1 B 1
H21A_7_455 H21A 7_455 7 '-x+1/2, -y+1/2, -z' 455 -1 0 0 8 1 . .
H21B_7_455 H21B 7_455 7 '-x+1/2, -y+1/2, -z' 455 -1 0 0 8 1 . .
H21C_7_455 H21C 7_455 7 '-x+1/2, -y+1/2, -z' 455 -1 0 0 8 1 B .
H21D_7_455 H21D 7_455 7 '-x+1/2, -y+1/2, -z' 455 -1 0 0 8 1 . .
H21E_7_455 H21E 7_455 7 '-x+1/2, -y+1/2, -z' 455 -1 0 0 8 1 . .
H30A_7_555 H30A 7_555 7 '-x+1/2, -y+1/2, -z' 555 0 0 0 8 1 C 1
H30B_7_555 H30B 7_555 7 '-x+1/2, -y+1/2, -z' 555 0 0 0 8 1 C 1
H30C_7_555 H30C 7_555 7 '-x+1/2, -y+1/2, -z' 555 0 0 0 8 1 C 1
H30D_7_555 H30D 7_555 7 '-x+1/2, -y+1/2, -z' 555 0 0 0 8 1 C 1
H30E_7_565 H30E 7_565 7 '-x+1/2, -y+1/2, -z' 565 0 1 0 8 1 C 1
H30F_7_565 H30F 7_565 7 '-x+1/2, -y+1/2, -z' 565 0 1 0 8 1 C 1
H30G_7_565 H30G 7_565 7 '-x+1/2, -y+1/2, -z' 565 0 1 0 8 1 C 1
H30H_7_565 H30H 7_565 7 '-x+1/2, -y+1/2, -z' 565 0 1 0 8 1 C 1
H30I_7_565 H30I 7_565 7 '-x+1/2, -y+1/2, -z' 565 0 1 0 8 1 C 1
H30J_7_555 H30J 7_555 7 '-x+1/2, -y+1/2, -z' 555 0 0 0 8 1 C 1
H30K_7_555 H30K 7_555 7 '-x+1/2, -y+1/2, -z' 555 0 0 0 8 1 C 1
H30L_7_555 H30L 7_555 7 '-x+1/2, -y+1/2, -z' 555 0 0 0 8 1 C 1
H30M_7_555 H30M 7_555 7 '-x+1/2, -y+1/2, -z' 555 0 0 0 8 1 C 1
H30N_7_555 H30N 7_555 7 '-x+1/2, -y+1/2, -z' 555 0 0 0 8 1 C 1
H30O_7_455 H30O 7_455 7 '-x+1/2, -y+1/2, -z' 455 -1 0 0 8 1 C 1
H30P_7_555 H30P 7_555 7 '-x+1/2, -y+1/2, -z' 555 0 0 0 8 1 C 1
H30Q_7_555 H30Q 7_555 7 '-x+1/2, -y+1/2, -z' 555 0 0 0 8 1 C 1
H30R_7_555 H30R 7_555 7 '-x+1/2, -y+1/2, -z' 555 0 0 0 8 1 . .
H30S_7_555 H30S 7_555 7 '-x+1/2, -y+1/2, -z' 555 0 0 0 8 1 . .
H30Z_7_555 H30Z 7_555 7 '-x+1/2, -y+1/2, -z' 555 0 0 0 8 1 C 1
H31A_7_555 H31A 7_555 7 '-x+1/2, -y+1/2, -z' 555 0 0 0 8 1 C .
H31B_7_555 H31B 7_555 7 '-x+1/2, -y+1/2, -z' 555 0 0 0 8 1 . .
H31C_7_555 H31C 7_555 7 '-x+1/2, -y+1/2, -z' 555 0 0 0 8 1 . .
H31D_7_555 H31D 7_555 7 '-x+1/2, -y+1/2, -z' 555 0 0 0 8 1 . .
H31E_7_555 H31E 7_555 7 '-x+1/2, -y+1/2, -z' 555 0 0 0 8 1 C .
H31F_7_555 H31F 7_555 7 '-x+1/2, -y+1/2, -z' 555 0 0 0 8 1 . .
H31G_7_555 H31G 7_555 7 '-x+1/2, -y+1/2, -z' 555 0 0 0 8 1 . .
H20R_1_7_555 H20R_1 7_555 7 '-x+1/2, -y+1/2, -z' 555 0 0 0 8 1 B 1
H20S_1_7_455 H20S_1 7_455 7 '-x+1/2, -y+1/2, -z' 455 -1 0 0 8 1 B .
loop_
_cod_molecule_transform_label
_cod_molecule_transform_symop
P1 x,y,z
P2 x,y,z
P3 x,y,z
S1 x,y,z
S2 x,y,z
S3 x,y,z
S4 x,y,z
W1 x,y,z
W2 x,y,z
W3 x,y,z
C101 x,y,z
C102 x,y,z
C103 x,y,z
C104 x,y,z
C105 x,y,z
C106 x,y,z
C107 x,y,z
C108 x,y,z
C109 x,y,z
C110 x,y,z
C111 x,y,z
C112 x,y,z
C201 x,y,z
C202 x,y,z
C203 x,y,z
C204 x,y,z
C205 x,y,z
C206 x,y,z
C207 x,y,z
C208 x,y,z
C209 x,y,z
C210 x,y,z
C211 x,y,z
C212 x,y,z
C301 x,y,z
C302 x,y,z
C303 x,y,z
C304 x,y,z
C305 x,y,z
C306 x,y,z
C307 x,y,z
C308 x,y,z
C309 x,y,z
C310 x,y,z
C311 x,y,z
C312 x,y,z
H10A x,y,z
H10B x,y,z
H10C x,y,z
H10D x,y,z
H10E x,y,z
H10F x,y,z
H10G x,y,z
H10H x,y,z
H10I x,y,z
H10J x,y,z
H10K x,y,z
H10L x,y,z
H10M x,y,z
H10N x,y,z
H10O x,y,z
H10P x,y,z
H10Q x,y,z
H10R x,y,z
H10Y x,y,z
H10Z x,y,z
H11A x,y,z
H11B x,y,z
H11C x,y,z
H11D x,y,z
H11E x,y,z
H11F x,y,z
H11G x,y,z
H20A x,y,z
H20B x,y,z
H20C x,y,z
H20D x,y,z
H20E x,y,z
H20F x,y,z
H20G x,y,z
H20H x,y,z
H20I x,y,z
H20J x,y,z
H20K x,y,z
H20L x,y,z
H20M x,y,z
H20N x,y,z
H20O x,y,z
H20P x,y,z
H20Q x,y,z
H20T x,y,z
H20W x,y,z
H20X x,y,z
H21A x,y,z
H21B x,y,z
H21C x,y,z
H21D x,y,z
H21E x,y,z
H30A x,y,z
H30B x,y,z
H30C x,y,z
H30D x,y,z
H30E x,y,z
H30F x,y,z
H30G x,y,z
H30H x,y,z
H30I x,y,z
H30J x,y,z
H30K x,y,z
H30L x,y,z
H30M x,y,z
H30N x,y,z
H30O x,y,z
H30P x,y,z
H30Q x,y,z
H30R x,y,z
H30S x,y,z
H30Z x,y,z
H31A x,y,z
H31B x,y,z
H31C x,y,z
H31D x,y,z
H31E x,y,z
H31F x,y,z
H31G x,y,z
H20R_1 x,y,z
H20S_1 x,y,z
P1_7_555 -x+0.5,-y+0.5,-z
P2_7_555 -x+0.5,-y+0.5,-z
P3_7_555 -x+0.5,-y+0.5,-z
S1_7_555 -x+0.5,-y+0.5,-z
S2_7_555 -x+0.5,-y+0.5,-z
S3_7_555 -x+0.5,-y+0.5,-z
S4_7_555 -x+0.5,-y+0.5,-z
W1_7_555 -x+0.5,-y+0.5,-z
W2_7_555 -x+0.5,-y+0.5,-z
W3_7_555 -x+0.5,-y+0.5,-z
C101_7_555 -x+0.5,-y+0.5,-z
C102_7_555 -x+0.5,-y+0.5,-z
C103_7_555 -x+0.5,-y+0.5,-z
C104_7_555 -x+0.5,-y+0.5,-z
C105_7_555 -x+0.5,-y+0.5,-z
C106_7_565 -x+0.5,-y+1.5,-z
C107_7_565 -x+0.5,-y+1.5,-z
C108_7_565 -x+0.5,-y+1.5,-z
C109_7_565 -x+0.5,-y+1.5,-z
C110_7_565 -x+0.5,-y+1.5,-z
C111_7_565 -x+0.5,-y+1.5,-z
C112_7_565 -x+0.5,-y+1.5,-z
C201_7_555 -x+0.5,-y+0.5,-z
C202_7_555 -x+0.5,-y+0.5,-z
C203_7_555 -x+0.5,-y+0.5,-z
C204_7_555 -x+0.5,-y+0.5,-z
C205_7_555 -x+0.5,-y+0.5,-z
C206_7_555 -x+0.5,-y+0.5,-z
C207_7_555 -x+0.5,-y+0.5,-z
C208_7_555 -x+0.5,-y+0.5,-z
C209_7_555 -x+0.5,-y+0.5,-z
C210_7_455 -x-0.5,-y+0.5,-z
C211_7_455 -x-0.5,-y+0.5,-z
C212_7_455 -x-0.5,-y+0.5,-z
C301_7_555 -x+0.5,-y+0.5,-z
C302_7_555 -x+0.5,-y+0.5,-z
C303_7_555 -x+0.5,-y+0.5,-z
C304_7_565 -x+0.5,-y+1.5,-z
C305_7_555 -x+0.5,-y+0.5,-z
C306_7_555 -x+0.5,-y+0.5,-z
C307_7_555 -x+0.5,-y+0.5,-z
C308_7_555 -x+0.5,-y+0.5,-z
C309_7_555 -x+0.5,-y+0.5,-z
C310_7_555 -x+0.5,-y+0.5,-z
C311_7_555 -x+0.5,-y+0.5,-z
C312_7_555 -x+0.5,-y+0.5,-z
H10A_7_565 -x+0.5,-y+1.5,-z
H10B_7_555 -x+0.5,-y+0.5,-z
H10C_7_555 -x+0.5,-y+0.5,-z
H10D_7_555 -x+0.5,-y+0.5,-z
H10E_7_565 -x+0.5,-y+1.5,-z
H10F_7_555 -x+0.5,-y+0.5,-z
H10G_7_555 -x+0.5,-y+0.5,-z
H10H_7_555 -x+0.5,-y+0.5,-z
H10I_7_555 -x+0.5,-y+0.5,-z
H10J_7_565 -x+0.5,-y+1.5,-z
H10K_7_565 -x+0.5,-y+1.5,-z
H10L_7_565 -x+0.5,-y+1.5,-z
H10M_7_565 -x+0.5,-y+1.5,-z
H10N_7_565 -x+0.5,-y+1.5,-z
H10O_7_565 -x+0.5,-y+1.5,-z
H10P_7_565 -x+0.5,-y+1.5,-z
H10Q_7_565 -x+0.5,-y+1.5,-z
H10R_7_565 -x+0.5,-y+1.5,-z
H10Y_7_555 -x+0.5,-y+0.5,-z
H10Z_7_555 -x+0.5,-y+0.5,-z
H11A_7_555 -x+0.5,-y+0.5,-z
H11B_7_565 -x+0.5,-y+1.5,-z
H11C_7_565 -x+0.5,-y+1.5,-z
H11D_7_565 -x+0.5,-y+1.5,-z
H11E_7_565 -x+0.5,-y+1.5,-z
H11F_7_565 -x+0.5,-y+1.5,-z
H11G_7_565 -x+0.5,-y+1.5,-z
H20A_7_555 -x+0.5,-y+0.5,-z
H20B_7_555 -x+0.5,-y+0.5,-z
H20C_7_555 -x+0.5,-y+0.5,-z
H20D_7_555 -x+0.5,-y+0.5,-z
H20E_7_555 -x+0.5,-y+0.5,-z
H20F_7_555 -x+0.5,-y+0.5,-z
H20G_7_555 -x+0.5,-y+0.5,-z
H20H_7_555 -x+0.5,-y+0.5,-z
H20I_7_555 -x+0.5,-y+0.5,-z
H20J_7_555 -x+0.5,-y+0.5,-z
H20K_7_555 -x+0.5,-y+0.5,-z
H20L_7_555 -x+0.5,-y+0.5,-z
H20M_7_555 -x+0.5,-y+0.5,-z
H20N_7_455 -x-0.5,-y+0.5,-z
H20O_7_555 -x+0.5,-y+0.5,-z
H20P_7_565 -x+0.5,-y+1.5,-z
H20Q_7_555 -x+0.5,-y+0.5,-z
H20T_7_455 -x-0.5,-y+0.5,-z
H20W_7_555 -x+0.5,-y+0.5,-z
H20X_7_455 -x-0.5,-y+0.5,-z
H21A_7_455 -x-0.5,-y+0.5,-z
H21B_7_455 -x-0.5,-y+0.5,-z
H21C_7_455 -x-0.5,-y+0.5,-z
H21D_7_455 -x-0.5,-y+0.5,-z
H21E_7_455 -x-0.5,-y+0.5,-z
H30A_7_555 -x+0.5,-y+0.5,-z
H30B_7_555 -x+0.5,-y+0.5,-z
H30C_7_555 -x+0.5,-y+0.5,-z
H30D_7_555 -x+0.5,-y+0.5,-z
H30E_7_565 -x+0.5,-y+1.5,-z
H30F_7_565 -x+0.5,-y+1.5,-z
H30G_7_565 -x+0.5,-y+1.5,-z
H30H_7_565 -x+0.5,-y+1.5,-z
H30I_7_565 -x+0.5,-y+1.5,-z
H30J_7_555 -x+0.5,-y+0.5,-z
H30K_7_555 -x+0.5,-y+0.5,-z
H30L_7_555 -x+0.5,-y+0.5,-z
H30M_7_555 -x+0.5,-y+0.5,-z
H30N_7_555 -x+0.5,-y+0.5,-z
H30O_7_455 -x-0.5,-y+0.5,-z
H30P_7_555 -x+0.5,-y+0.5,-z
H30Q_7_555 -x+0.5,-y+0.5,-z
H30R_7_555 -x+0.5,-y+0.5,-z
H30S_7_555 -x+0.5,-y+0.5,-z
H30Z_7_555 -x+0.5,-y+0.5,-z
H31A_7_555 -x+0.5,-y+0.5,-z
H31B_7_555 -x+0.5,-y+0.5,-z
H31C_7_555 -x+0.5,-y+0.5,-z
H31D_7_555 -x+0.5,-y+0.5,-z
H31E_7_555 -x+0.5,-y+0.5,-z
H31F_7_555 -x+0.5,-y+0.5,-z
H31G_7_555 -x+0.5,-y+0.5,-z
H20R_1_7_555 -x+0.5,-y+0.5,-z
H20S_1_7_455 -x-0.5,-y+0.5,-z
data_d5_molecule_1
loop_
_publ_author_name
'Jin, Song.'
'Zhou, Ran.'
'Scheuer, Ellen. M.'
'Adamchuk, Jennifer.'
'Rayburn, Lori. L.'
'DiSalvo, Francis. J.'
_journal_name_full
;
Inorganic Chemistry
;
_journal_page_first              2666
_journal_page_last               2674
_journal_volume                  40
_journal_year                    2001
_cell_length_a                   24.6648(12)
_cell_length_b                   19.8619(9)
_cell_length_c                   20.1365(10)
_cell_angle_alpha                90.00
_cell_angle_beta                 103.3240(10)
_cell_angle_gamma                90.00
_cell_measurement_temperature    163(2)
_diffrn_ambient_temperature      163(2)
_diffrn_radiation_monochromator  graphite
_diffrn_radiation_source         'fine-focus sealed tube'
_diffrn_radiation_type           MoK\a
_diffrn_radiation_wavelength     0.71073
_diffrn_reflns_theta_full        33.22
_diffrn_reflns_theta_max         33.22
_diffrn_reflns_limit_h_max       31
_diffrn_reflns_limit_h_min       -37
_diffrn_reflns_limit_k_max       29
_diffrn_reflns_limit_k_min       -30
_diffrn_reflns_limit_l_max       28
_diffrn_reflns_limit_l_min       -30
_cod_src_refine_ls_wR_factor_ref 0.0590
_cod_src_refine_ls_R_factor_gt   0.0250
_cod_src_refine_ls_R_factor_all  0.0396
_cod_src_chemical_formula_moiety 'W6 S8 (PC12H27)6'
_cod_src_chemical_formula_sum    'C72 H162 P6 S8 W6'
_cod_src_refine_ls_wR_factor_gt  0.0506
_audit_creation_method
'Id: cif_molecule 2320 2013-10-24 05:30:23Z saulius'
_chemical_formula_sum            'C72 H162 P6 S8 W6'
_cod_data_source_file            1004001-disorder.cif
_cod_data_source_block           d5
_symmetry_space_group_name_H-M   'P 1'
loop_ _symmetry_equiv_pos_as_xyz 'x, y, z'
loop_
_atom_site_label
_atom_site_type_symbol
_atom_site_fract_x
_atom_site_fract_y
_atom_site_fract_z
_atom_site_U_iso_or_equiv
_atom_site_occupancy
_atom_site_disorder_assembly
_atom_site_disorder_group
P1 P 0.187360 0.541490 0.471000 0.02516(16) 1 . .
P2 P 0.411140 0.681640 0.464870 0.02415(15) 1 . .
P3 P 0.312410 0.703920 0.718490 0.03089(19) 1 . .
S1 S 0.311760 0.625830 0.559520 0.02175(14) 1 . .
S2 S 0.262170 0.657000 0.386430 0.02124(14) 1 . .
S3 S 0.136620 0.710880 0.417630 0.02330(14) 1 . .
S4 S 0.186440 0.680700 0.590690 0.02235(14) 1 . .
W1 W 0.221998 0.661077 0.487536 0.01761(3) 1 . .
W2 W 0.318507 0.720290 0.483260 0.01700(3) 1 . .
W3 W 0.277213 0.732942 0.594292 0.01748(3) 1 . .
C105 C 0.150630 0.519640 0.383770 0.0318(7) 1 A .
C106 C 0.131940 0.447000 0.370220 0.0426(9) 1 . .
C107 C 0.100280 0.434000 0.297900 0.0516(11) 1 A .
C108 C 0.084700 0.361100 0.283800 0.0760(18) 1 . .
C109 C 0.241670 0.477560 0.494100 0.0333(8) 1 A .
C11' C 0.151200 0.508800 0.533500 0.038(3) 0.467(8) A 2
C110 C 0.286320 0.478700 0.453500 0.0333(8) 1 . .
C111 C 0.336800 0.436700 0.487300 0.0528(11) 1 A .
C112 C 0.381930 0.437600 0.448700 0.0576(12) 1 . .
C12' C 0.097400 0.545000 0.534000 0.050(3) 0.467(8) A 2
C13' C 0.075000 0.515800 0.600500 0.090(5) 0.467(8) A 2
C14' C 0.028200 0.562400 0.606000 0.082(5) 0.467(8) A 2
C205 C 0.445690 0.616360 0.523720 0.0344(7) 1 B .
C206 C 0.463830 0.638100 0.598290 0.0463(10) 1 . .
C209 C 0.463580 0.748620 0.472930 0.0300(7) 1 B .
C21' C 0.414400 0.630900 0.390200 0.027(4) 0.266(12) B 2
C210 C 0.521550 0.728800 0.465400 0.0405(8) 1 . .
C211 C 0.561110 0.787000 0.470000 0.0517(11) 1 B .
C212 C 0.617940 0.766200 0.461800 0.0619(13) 1 . .
C22' C 0.404200 0.672500 0.324700 0.037(4) 0.266(12) B 2
C23' C 0.406500 0.631300 0.261100 0.050(5) 0.266(12) B 2
C24' C 0.404500 0.667900 0.200500 0.083(8) 0.266(12) B 2
C27' C 0.468500 0.579100 0.647500 0.090(7) 0.48(2) B 2
C28' C 0.501000 0.524000 0.642500 0.117(9) 0.48(2) B 2
C309 C 0.266470 0.729690 0.773690 0.0286(7) 1 C .
C31' C 0.314800 0.604500 0.732600 0.016(2) 0.36(3) C 2
C310 C 0.284450 0.709190 0.848900 0.0401(9) 1 . .
C311 C 0.245420 0.734570 0.892210 0.0403(9) 1 C .
C312 C 0.245940 0.809800 0.900500 0.0477(10) 1 . .
C32' C 0.258500 0.566500 0.710500 0.026(3) 0.36(3) C 2
C33' C 0.267400 0.489900 0.729400 0.032(3) 0.36(3) C 2
C34' C 0.213100 0.450500 0.709300 0.039(4) 0.36(3) C 2
C35' C 0.378700 0.721700 0.762600 0.025(2) 0.390(10) C 2
C36' C 0.386200 0.797900 0.776300 0.0246(19) 0.390(10) C 2
C37' C 0.445100 0.816300 0.813700 0.046(3) 0.390(10) C 2
C38' C 0.451500 0.890800 0.831000 0.067(4) 0.390(10) C 2
H10I H 0.117300 0.548800 0.371000 0.038 1 . .
H10J H 0.165200 0.417500 0.380600 0.051 1 A .
H10K H 0.108000 0.434600 0.401600 0.051 1 . .
H10L H 0.065900 0.461500 0.288300 0.062 1 . .
H10M H 0.123300 0.448700 0.266300 0.062 1 . .
H10N H 0.064200 0.356100 0.236200 0.114 1 A .
H10O H 0.061100 0.346300 0.314100 0.114 1 . .
H10P H 0.118500 0.333600 0.291900 0.114 1 . .
H10Q H 0.259900 0.483100 0.543000 0.040 1 . .
H10R H 0.223700 0.432700 0.488600 0.040 1 . .
H10Y H 0.175200 0.531000 0.352900 0.038 1 . .
H11A H 0.298200 0.525800 0.449100 0.040 1 A .
H11B H 0.270600 0.461100 0.407100 0.040 1 . .
H11C H 0.352000 0.453900 0.534000 0.063 1 . .
H11D H 0.324800 0.389600 0.491200 0.063 1 . .
H11E H 0.413300 0.409900 0.472800 0.086 1 A .
H11F H 0.394600 0.483900 0.445400 0.086 1 . .
H11G H 0.367500 0.419400 0.402800 0.086 1 . .
H11H H 0.143000 0.460500 0.524000 0.046 0.467(8) A 2
H11I H 0.176300 0.512200 0.579500 0.046 0.467(8) A 2
H12A H 0.069400 0.536200 0.491000 0.060 0.467(8) A 2
H12Z H 0.103900 0.594200 0.538400 0.060 0.467(8) A 2
H13A H 0.061600 0.468900 0.592500 0.03(2) 0.467(8) A 2
H13B H 0.105100 0.517200 0.642600 0.25(11) 0.467(8) A 2
H14A H 0.012400 0.548400 0.644300 0.099 0.467(8) A 2
H14C H 0.042500 0.608500 0.613700 0.099 0.467(8) A 2
H20J H 0.420100 0.577600 0.520800 0.041 1 . .
H20K H 0.479000 0.600700 0.508500 0.041 1 . .
H20O H 0.448900 0.783400 0.438200 0.036 1 . .
H20T H 0.518100 0.706300 0.420700 0.049 1 . .
H20W H 0.467500 0.769900 0.518200 0.036 1 . .
H21A H 0.565000 0.809300 0.514900 0.062 1 . .
H21B H 0.545200 0.820300 0.434200 0.062 1 . .
H21C H 0.641900 0.806000 0.465200 0.093 1 B .
H21D H 0.614500 0.745000 0.417000 0.093 1 . .
H21E H 0.634300 0.734100 0.497700 0.093 1 . .
H21F H 0.451600 0.609400 0.397700 0.032 0.266(12) B 2
H21G H 0.386200 0.594600 0.384900 0.032 0.266(12) B 2
H22A H 0.367200 0.694200 0.317600 0.044 0.266(12) B 2
H22B H 0.432500 0.708700 0.330300 0.044 0.266(12) B 2
H23A H 0.441200 0.604500 0.271300 0.060 0.266(12) B 2
H23B H 0.374900 0.599200 0.252500 0.060 0.266(12) B 2
H24A H 0.403500 0.636500 0.162700 0.099 0.266(12) B 2
H24B H 0.437600 0.696500 0.206300 0.099 0.266(12) B 2
H24C H 0.371000 0.696200 0.190400 0.099 0.266(12) B 2
H27A H 0.481700 0.597600 0.694100 0.108 0.48(2) B 2
H27B H 0.430200 0.562300 0.644300 0.108 0.48(2) B 2
H28A H 0.495100 0.489300 0.674700 0.175 0.48(2) B 2
H28B H 0.540400 0.537400 0.653400 0.175 0.48(2) B 2
H28C H 0.490900 0.506100 0.596000 0.175 0.48(2) B 2
H30R H 0.262900 0.779300 0.771500 0.034 1 . .
H30S H 0.229000 0.710600 0.754700 0.034 1 . .
H31A H 0.286400 0.659500 0.851800 0.048 1 C .
H31B H 0.322300 0.726900 0.868100 0.048 1 . .
H31C H 0.207000 0.719900 0.870900 0.048 1 . .
H31D H 0.256200 0.713500 0.937900 0.048 1 . .
H31E H 0.220200 0.822700 0.928800 0.072 1 C .
H31F H 0.234300 0.831100 0.855600 0.072 1 . .
H31G H 0.283700 0.824700 0.922500 0.072 1 . .
H31H H 0.341000 0.585200 0.707100 0.019 0.36(3) C 2
H31Z H 0.330400 0.595500 0.781600 0.019 0.36(3) C 2
H32A H 0.243700 0.571400 0.660700 0.031 0.36(3) C 2
H32B H 0.231100 0.586100 0.734000 0.031 0.36(3) C 2
H33A H 0.294800 0.470700 0.705700 0.038 0.36(3) C 2
H33B H 0.282700 0.485400 0.779100 0.038 0.36(3) C 2
H34A H 0.220200 0.403000 0.721400 0.058 0.36(3) C 2
H34B H 0.198000 0.454400 0.660000 0.058 0.36(3) C 2
H34C H 0.186200 0.468700 0.733500 0.058 0.36(3) C 2
H35A H 0.386700 0.697200 0.806600 0.030 0.390(10) C 2
H35B H 0.405500 0.706300 0.736100 0.030 0.390(10) C 2
H36A H 0.376700 0.822200 0.732200 0.030 0.390(10) C 2
H36B H 0.359800 0.812700 0.803700 0.030 0.390(10) C 2
H37A H 0.455400 0.789800 0.856400 0.055 0.390(10) C 2
H37B H 0.471200 0.804100 0.784900 0.055 0.390(10) C 2
H38A H 0.490100 0.900000 0.855200 0.100 0.390(10) C 2
H38B H 0.426300 0.903200 0.860100 0.100 0.390(10) C 2
H38C H 0.442400 0.917300 0.788800 0.100 0.390(10) C 2
H20R_0 H 0.500400 0.661000 0.605600 0.056 0.48(2) B 2
H20S_0 H 0.436600 0.670900 0.608300 0.056 0.48(2) B 2
H20S_1 H 0.537500 0.695800 0.501400 0.049 1 B .
P1_7_555 P 0.312640 0.958510 0.529000 0.02516(16) 1 . .
P2_7_555 P 0.088860 0.818360 0.535130 0.02415(15) 1 . .
P3_7_555 P 0.187590 0.796080 0.281510 0.03089(19) 1 . .
S1_7_555 S 0.188240 0.874170 0.440480 0.02175(14) 1 . .
S2_7_555 S 0.237830 0.843000 0.613570 0.02124(14) 1 . .
S3_7_555 S 0.363380 0.789120 0.582370 0.02330(14) 1 . .
S4_7_555 S 0.313560 0.819300 0.409310 0.02235(14) 1 . .
W1_7_555 W 0.278002 0.838923 0.512464 0.01761(3) 1 . .
W2_7_555 W 0.181493 0.779710 0.516740 0.01700(3) 1 . .
W3_7_555 W 0.222787 0.767058 0.405708 0.01748(3) 1 . .
C105_7_555 C 0.349370 0.980360 0.616230 0.0318(7) 1 A .
C106_7_565 C 0.368060 1.053000 0.629780 0.0426(9) 1 . .
C107_7_565 C 0.399720 1.066000 0.702100 0.0516(11) 1 A .
C108_7_565 C 0.415300 1.138900 0.716200 0.0760(18) 1 . .
C109_7_565 C 0.258330 1.022440 0.505900 0.0333(8) 1 A .
C11'_7_555 C 0.348800 0.991200 0.466500 0.038(3) 0.467(8) A 2
C110_7_565 C 0.213680 1.021300 0.546500 0.0333(8) 1 . .
C111_7_565 C 0.163200 1.063300 0.512700 0.0528(11) 1 A .
C112_7_565 C 0.118070 1.062400 0.551300 0.0576(12) 1 . .
C12'_7_555 C 0.402600 0.955000 0.466000 0.050(3) 0.467(8) A 2
C13'_7_555 C 0.425000 0.984200 0.399500 0.090(5) 0.467(8) A 2
C14'_7_555 C 0.471800 0.937600 0.394000 0.082(5) 0.467(8) A 2
C205_7_555 C 0.054310 0.883640 0.476280 0.0344(7) 1 B .
C206_7_555 C 0.036170 0.861900 0.401710 0.0463(10) 1 . .
C209_7_555 C 0.036420 0.751380 0.527070 0.0300(7) 1 B .
C21'_7_555 C 0.085600 0.869100 0.609800 0.027(4) 0.266(12) B 2
C210_7_455 C -0.021550 0.771200 0.534600 0.0405(8) 1 . .
C211_7_455 C -0.061110 0.713000 0.530000 0.0517(11) 1 B .
C212_7_455 C -0.117940 0.733800 0.538200 0.0619(13) 1 . .
C22'_7_555 C 0.095800 0.827500 0.675300 0.037(4) 0.266(12) B 2
C23'_7_555 C 0.093500 0.868700 0.738900 0.050(5) 0.266(12) B 2
C24'_7_555 C 0.095500 0.832100 0.799500 0.083(8) 0.266(12) B 2
C27'_7_555 C 0.031500 0.920900 0.352500 0.090(7) 0.48(2) B 2
C28'_7_455 C -0.001000 0.976000 0.357500 0.117(9) 0.48(2) B 2
C309_7_555 C 0.233530 0.770310 0.226310 0.0286(7) 1 C .
C31'_7_555 C 0.185200 0.895500 0.267400 0.016(2) 0.36(3) C 2
C310_7_555 C 0.215550 0.790810 0.151100 0.0401(9) 1 . .
C311_7_555 C 0.254580 0.765430 0.107790 0.0403(9) 1 C .
C312_7_555 C 0.254060 0.690200 0.099500 0.0477(10) 1 . .
C32'_7_555 C 0.241500 0.933500 0.289500 0.026(3) 0.36(3) C 2
C33'_7_565 C 0.232600 1.010100 0.270600 0.032(3) 0.36(3) C 2
C34'_7_565 C 0.286900 1.049500 0.290700 0.039(4) 0.36(3) C 2
C35'_7_555 C 0.121300 0.778300 0.237400 0.025(2) 0.390(10) C 2
C36'_7_555 C 0.113800 0.702100 0.223700 0.0246(19) 0.390(10) C 2
C37'_7_555 C 0.054900 0.683700 0.186300 0.046(3) 0.390(10) C 2
C38'_7_555 C 0.048500 0.609200 0.169000 0.067(4) 0.390(10) C 2
H10I_7_555 H 0.382700 0.951200 0.629000 0.038 1 . .
H10J_7_565 H 0.334800 1.082500 0.619400 0.051 1 A .
H10K_7_565 H 0.392000 1.065400 0.598400 0.051 1 . .
H10L_7_565 H 0.434100 1.038500 0.711700 0.062 1 . .
H10M_7_565 H 0.376700 1.051300 0.733700 0.062 1 . .
H10N_7_565 H 0.435800 1.143900 0.763800 0.114 1 A .
H10O_7_565 H 0.438900 1.153700 0.685900 0.114 1 . .
H10P_7_565 H 0.381500 1.166400 0.708100 0.114 1 . .
H10Q_7_565 H 0.240100 1.016900 0.457000 0.040 1 . .
H10R_7_565 H 0.276300 1.067300 0.511400 0.040 1 . .
H10Y_7_555 H 0.324800 0.969000 0.647100 0.038 1 . .
H11A_7_555 H 0.201800 0.974200 0.550900 0.040 1 A .
H11B_7_565 H 0.229400 1.038900 0.592900 0.040 1 . .
H11C_7_565 H 0.148000 1.046100 0.466000 0.063 1 . .
H11D_7_565 H 0.175200 1.110400 0.508800 0.063 1 . .
H11E_7_565 H 0.086700 1.090100 0.527200 0.086 1 A .
H11F_7_565 H 0.105400 1.016100 0.554600 0.086 1 . .
H11G_7_565 H 0.132500 1.080600 0.597200 0.086 1 . .
H11H_7_565 H 0.357000 1.039500 0.476000 0.046 0.467(8) A 2
H11I_7_555 H 0.323700 0.987800 0.420500 0.046 0.467(8) A 2
H12A_7_555 H 0.430600 0.963800 0.509000 0.060 0.467(8) A 2
H12Z_7_555 H 0.396100 0.905800 0.461600 0.060 0.467(8) A 2
H13A_7_565 H 0.438400 1.031100 0.407500 0.03(2) 0.467(8) A 2
H13B_7_555 H 0.394900 0.982800 0.357400 0.25(11) 0.467(8) A 2
H14A_7_555 H 0.487600 0.951600 0.355700 0.099 0.467(8) A 2
H14B_1_455 H -0.000800 0.560700 0.563600 0.099 0.467(8) A 2
H14B_7_555 H 0.500800 0.939300 0.436400 0.099 0.467(8) A 2
H14C_7_555 H 0.457500 0.891500 0.386300 0.099 0.467(8) A 2
H20J_7_555 H 0.079900 0.922400 0.479200 0.041 1 . .
H20K_7_555 H 0.021000 0.899300 0.491500 0.041 1 . .
H20O_7_555 H 0.051100 0.716600 0.561800 0.036 1 . .
H20T_7_455 H -0.018100 0.793700 0.579300 0.049 1 . .
H20W_7_555 H 0.032500 0.730100 0.481800 0.036 1 . .
H21A_7_455 H -0.065000 0.690700 0.485100 0.062 1 . .
H21B_7_455 H -0.045200 0.679700 0.565800 0.062 1 . .
H21C_7_455 H -0.141900 0.694000 0.534800 0.093 1 B .
H21D_7_455 H -0.114500 0.755000 0.583000 0.093 1 . .
H21E_7_455 H -0.134300 0.765900 0.502300 0.093 1 . .
H21F_7_555 H 0.048400 0.890600 0.602300 0.032 0.266(12) B 2
H21G_7_555 H 0.113800 0.905400 0.615100 0.032 0.266(12) B 2
H22A_7_555 H 0.132800 0.805800 0.682400 0.044 0.266(12) B 2
H22B_7_555 H 0.067500 0.791300 0.669700 0.044 0.266(12) B 2
H23A_7_555 H 0.058800 0.895500 0.728700 0.060 0.266(12) B 2
H23B_7_555 H 0.125100 0.900800 0.747500 0.060 0.266(12) B 2
H24A_7_555 H 0.096500 0.863500 0.837300 0.099 0.266(12) B 2
H24B_7_555 H 0.062400 0.803500 0.793700 0.099 0.266(12) B 2
H24C_7_555 H 0.129000 0.803800 0.809600 0.099 0.266(12) B 2
H27A_7_555 H 0.018300 0.902400 0.305900 0.108 0.48(2) B 2
H27B_7_555 H 0.069800 0.937700 0.355700 0.108 0.48(2) B 2
H28A_7_565 H 0.004900 1.010700 0.325300 0.175 0.48(2) B 2
H28B_7_455 H -0.040400 0.962600 0.346600 0.175 0.48(2) B 2
H28C_7_555 H 0.009100 0.993900 0.404000 0.175 0.48(2) B 2
H30R_7_555 H 0.237100 0.720700 0.228500 0.034 1 . .
H30S_7_555 H 0.271000 0.789400 0.245300 0.034 1 . .
H31A_7_555 H 0.213600 0.840500 0.148200 0.048 1 C .
H31B_7_555 H 0.177700 0.773100 0.131900 0.048 1 . .
H31C_7_555 H 0.293000 0.780100 0.129100 0.048 1 . .
H31D_7_555 H 0.243800 0.786500 0.062100 0.048 1 . .
H31E_7_555 H 0.279800 0.677300 0.071200 0.072 1 C .
H31F_7_555 H 0.265700 0.668900 0.144400 0.072 1 . .
H31G_7_555 H 0.216300 0.675300 0.077500 0.072 1 . .
H31H_7_555 H 0.159000 0.914800 0.292900 0.019 0.36(3) C 2
H31Z_7_555 H 0.169600 0.904500 0.218400 0.019 0.36(3) C 2
H32A_7_555 H 0.256300 0.928600 0.339300 0.031 0.36(3) C 2
H32B_7_555 H 0.268900 0.913900 0.266000 0.031 0.36(3) C 2
H33A_7_565 H 0.205200 1.029300 0.294300 0.038 0.36(3) C 2
H33B_7_565 H 0.217300 1.014600 0.220900 0.038 0.36(3) C 2
H34A_7_565 H 0.279800 1.097000 0.278600 0.058 0.36(3) C 2
H34B_7_565 H 0.302000 1.045600 0.340000 0.058 0.36(3) C 2
H34C_7_565 H 0.313800 1.031300 0.266500 0.058 0.36(3) C 2
H35A_7_555 H 0.113300 0.802800 0.193400 0.030 0.390(10) C 2
H35B_7_555 H 0.094500 0.793700 0.263900 0.030 0.390(10) C 2
H36A_7_555 H 0.123300 0.677800 0.267800 0.030 0.390(10) C 2
H36B_7_555 H 0.140200 0.687300 0.196300 0.030 0.390(10) C 2
H37A_7_555 H 0.044600 0.710200 0.143600 0.055 0.390(10) C 2
H37B_7_555 H 0.028800 0.695900 0.215100 0.055 0.390(10) C 2
H38A_7_555 H 0.009900 0.600000 0.144800 0.100 0.390(10) C 2
H38B_7_555 H 0.073700 0.596800 0.139900 0.100 0.390(10) C 2
H38C_7_555 H 0.057600 0.582700 0.211200 0.100 0.390(10) C 2
H20R_0_7_455 H -0.000400 0.839000 0.394400 0.056 0.48(2) B 2
H20S_0_7_555 H 0.063400 0.829100 0.391700 0.056 0.48(2) B 2
H20S_1_7_455 H -0.037500 0.804200 0.498600 0.049 1 B .
loop_
_cod_molecule_atom_label
_cod_molecule_atom_orig_label
_cod_molecule_atom_symmetry
_cod_molecule_atom_symop_id
_cod_molecule_atom_symop_xyz
_cod_molecule_atom_transl_id
_cod_molecule_atom_transl_x
_cod_molecule_atom_transl_y
_cod_molecule_atom_transl_z
_cod_molecule_atom_mult
_cod_molecule_atom_mult_ratio
_cod_molecule_atom_assembly
_cod_molecule_atom_group
P1 P1 1_555 1 'x, y, z' 555 0 0 0 8 1 . .
P2 P2 1_555 1 'x, y, z' 555 0 0 0 8 1 . .
P3 P3 1_555 1 'x, y, z' 555 0 0 0 8 1 . .
S1 S1 1_555 1 'x, y, z' 555 0 0 0 8 1 . .
S2 S2 1_555 1 'x, y, z' 555 0 0 0 8 1 . .
S3 S3 1_555 1 'x, y, z' 555 0 0 0 8 1 . .
S4 S4 1_555 1 'x, y, z' 555 0 0 0 8 1 . .
W1 W1 1_555 1 'x, y, z' 555 0 0 0 8 1 . .
W2 W2 1_555 1 'x, y, z' 555 0 0 0 8 1 . .
W3 W3 1_555 1 'x, y, z' 555 0 0 0 8 1 . .
C105 C105 1_555 1 'x, y, z' 555 0 0 0 8 1 A .
C106 C106 1_555 1 'x, y, z' 555 0 0 0 8 1 . .
C107 C107 1_555 1 'x, y, z' 555 0 0 0 8 1 A .
C108 C108 1_555 1 'x, y, z' 555 0 0 0 8 1 . .
C109 C109 1_555 1 'x, y, z' 555 0 0 0 8 1 A .
C11' C11' 1_555 1 'x, y, z' 555 0 0 0 8 1 A 2
C110 C110 1_555 1 'x, y, z' 555 0 0 0 8 1 . .
C111 C111 1_555 1 'x, y, z' 555 0 0 0 8 1 A .
C112 C112 1_555 1 'x, y, z' 555 0 0 0 8 1 . .
C12' C12' 1_555 1 'x, y, z' 555 0 0 0 8 1 A 2
C13' C13' 1_555 1 'x, y, z' 555 0 0 0 8 1 A 2
C14' C14' 1_555 1 'x, y, z' 555 0 0 0 8 1 A 2
C205 C205 1_555 1 'x, y, z' 555 0 0 0 8 1 B .
C206 C206 1_555 1 'x, y, z' 555 0 0 0 8 1 . .
C209 C209 1_555 1 'x, y, z' 555 0 0 0 8 1 B .
C21' C21' 1_555 1 'x, y, z' 555 0 0 0 8 1 B 2
C210 C210 1_555 1 'x, y, z' 555 0 0 0 8 1 . .
C211 C211 1_555 1 'x, y, z' 555 0 0 0 8 1 B .
C212 C212 1_555 1 'x, y, z' 555 0 0 0 8 1 . .
C22' C22' 1_555 1 'x, y, z' 555 0 0 0 8 1 B 2
C23' C23' 1_555 1 'x, y, z' 555 0 0 0 8 1 B 2
C24' C24' 1_555 1 'x, y, z' 555 0 0 0 8 1 B 2
C27' C27' 1_555 1 'x, y, z' 555 0 0 0 8 1 B 2
C28' C28' 1_555 1 'x, y, z' 555 0 0 0 8 1 B 2
C309 C309 1_555 1 'x, y, z' 555 0 0 0 8 1 C .
C31' C31' 1_555 1 'x, y, z' 555 0 0 0 8 1 C 2
C310 C310 1_555 1 'x, y, z' 555 0 0 0 8 1 . .
C311 C311 1_555 1 'x, y, z' 555 0 0 0 8 1 C .
C312 C312 1_555 1 'x, y, z' 555 0 0 0 8 1 . .
C32' C32' 1_555 1 'x, y, z' 555 0 0 0 8 1 C 2
C33' C33' 1_555 1 'x, y, z' 555 0 0 0 8 1 C 2
C34' C34' 1_555 1 'x, y, z' 555 0 0 0 8 1 C 2
C35' C35' 1_555 1 'x, y, z' 555 0 0 0 8 1 C 2
C36' C36' 1_555 1 'x, y, z' 555 0 0 0 8 1 C 2
C37' C37' 1_555 1 'x, y, z' 555 0 0 0 8 1 C 2
C38' C38' 1_555 1 'x, y, z' 555 0 0 0 8 1 C 2
H10I H10I 1_555 1 'x, y, z' 555 0 0 0 8 1 . .
H10J H10J 1_555 1 'x, y, z' 555 0 0 0 8 1 A .
H10K H10K 1_555 1 'x, y, z' 555 0 0 0 8 1 . .
H10L H10L 1_555 1 'x, y, z' 555 0 0 0 8 1 . .
H10M H10M 1_555 1 'x, y, z' 555 0 0 0 8 1 . .
H10N H10N 1_555 1 'x, y, z' 555 0 0 0 8 1 A .
H10O H10O 1_555 1 'x, y, z' 555 0 0 0 8 1 . .
H10P H10P 1_555 1 'x, y, z' 555 0 0 0 8 1 . .
H10Q H10Q 1_555 1 'x, y, z' 555 0 0 0 8 1 . .
H10R H10R 1_555 1 'x, y, z' 555 0 0 0 8 1 . .
H10Y H10Y 1_555 1 'x, y, z' 555 0 0 0 8 1 . .
H11A H11A 1_555 1 'x, y, z' 555 0 0 0 8 1 A .
H11B H11B 1_555 1 'x, y, z' 555 0 0 0 8 1 . .
H11C H11C 1_555 1 'x, y, z' 555 0 0 0 8 1 . .
H11D H11D 1_555 1 'x, y, z' 555 0 0 0 8 1 . .
H11E H11E 1_555 1 'x, y, z' 555 0 0 0 8 1 A .
H11F H11F 1_555 1 'x, y, z' 555 0 0 0 8 1 . .
H11G H11G 1_555 1 'x, y, z' 555 0 0 0 8 1 . .
H11H H11H 1_555 1 'x, y, z' 555 0 0 0 8 1 A 2
H11I H11I 1_555 1 'x, y, z' 555 0 0 0 8 1 A 2
H12A H12A 1_555 1 'x, y, z' 555 0 0 0 8 1 A 2
H12Z H12Z 1_555 1 'x, y, z' 555 0 0 0 8 1 A 2
H13A H13A 1_555 1 'x, y, z' 555 0 0 0 8 1 A 2
H13B H13B 1_555 1 'x, y, z' 555 0 0 0 8 1 A 2
H14A H14A 1_555 1 'x, y, z' 555 0 0 0 8 1 A 2
H14C H14C 1_555 1 'x, y, z' 555 0 0 0 8 1 A 2
H20J H20J 1_555 1 'x, y, z' 555 0 0 0 8 1 . .
H20K H20K 1_555 1 'x, y, z' 555 0 0 0 8 1 . .
H20O H20O 1_555 1 'x, y, z' 555 0 0 0 8 1 . .
H20T H20T 1_555 1 'x, y, z' 555 0 0 0 8 1 . .
H20W H20W 1_555 1 'x, y, z' 555 0 0 0 8 1 . .
H21A H21A 1_555 1 'x, y, z' 555 0 0 0 8 1 . .
H21B H21B 1_555 1 'x, y, z' 555 0 0 0 8 1 . .
H21C H21C 1_555 1 'x, y, z' 555 0 0 0 8 1 B .
H21D H21D 1_555 1 'x, y, z' 555 0 0 0 8 1 . .
H21E H21E 1_555 1 'x, y, z' 555 0 0 0 8 1 . .
H21F H21F 1_555 1 'x, y, z' 555 0 0 0 8 1 B 2
H21G H21G 1_555 1 'x, y, z' 555 0 0 0 8 1 B 2
H22A H22A 1_555 1 'x, y, z' 555 0 0 0 8 1 B 2
H22B H22B 1_555 1 'x, y, z' 555 0 0 0 8 1 B 2
H23A H23A 1_555 1 'x, y, z' 555 0 0 0 8 1 B 2
H23B H23B 1_555 1 'x, y, z' 555 0 0 0 8 1 B 2
H24A H24A 1_555 1 'x, y, z' 555 0 0 0 8 1 B 2
H24B H24B 1_555 1 'x, y, z' 555 0 0 0 8 1 B 2
H24C H24C 1_555 1 'x, y, z' 555 0 0 0 8 1 B 2
H27A H27A 1_555 1 'x, y, z' 555 0 0 0 8 1 B 2
H27B H27B 1_555 1 'x, y, z' 555 0 0 0 8 1 B 2
H28A H28A 1_555 1 'x, y, z' 555 0 0 0 8 1 B 2
H28B H28B 1_555 1 'x, y, z' 555 0 0 0 8 1 B 2
H28C H28C 1_555 1 'x, y, z' 555 0 0 0 8 1 B 2
H30R H30R 1_555 1 'x, y, z' 555 0 0 0 8 1 . .
H30S H30S 1_555 1 'x, y, z' 555 0 0 0 8 1 . .
H31A H31A 1_555 1 'x, y, z' 555 0 0 0 8 1 C .
H31B H31B 1_555 1 'x, y, z' 555 0 0 0 8 1 . .
H31C H31C 1_555 1 'x, y, z' 555 0 0 0 8 1 . .
H31D H31D 1_555 1 'x, y, z' 555 0 0 0 8 1 . .
H31E H31E 1_555 1 'x, y, z' 555 0 0 0 8 1 C .
H31F H31F 1_555 1 'x, y, z' 555 0 0 0 8 1 . .
H31G H31G 1_555 1 'x, y, z' 555 0 0 0 8 1 . .
H31H H31H 1_555 1 'x, y, z' 555 0 0 0 8 1 C 2
H31Z H31Z 1_555 1 'x, y, z' 555 0 0 0 8 1 C 2
H32A H32A 1_555 1 'x, y, z' 555 0 0 0 8 1 C 2
H32B H32B 1_555 1 'x, y, z' 555 0 0 0 8 1 C 2
H33A H33A 1_555 1 'x, y, z' 555 0 0 0 8 1 C 2
H33B H33B 1_555 1 'x, y, z' 555 0 0 0 8 1 C 2
H34A H34A 1_555 1 'x, y, z' 555 0 0 0 8 1 C 2
H34B H34B 1_555 1 'x, y, z' 555 0 0 0 8 1 C 2
H34C H34C 1_555 1 'x, y, z' 555 0 0 0 8 1 C 2
H35A H35A 1_555 1 'x, y, z' 555 0 0 0 8 1 C 2
H35B H35B 1_555 1 'x, y, z' 555 0 0 0 8 1 C 2
H36A H36A 1_555 1 'x, y, z' 555 0 0 0 8 1 C 2
H36B H36B 1_555 1 'x, y, z' 555 0 0 0 8 1 C 2
H37A H37A 1_555 1 'x, y, z' 555 0 0 0 8 1 C 2
H37B H37B 1_555 1 'x, y, z' 555 0 0 0 8 1 C 2
H38A H38A 1_555 1 'x, y, z' 555 0 0 0 8 1 C 2
H38B H38B 1_555 1 'x, y, z' 555 0 0 0 8 1 C 2
H38C H38C 1_555 1 'x, y, z' 555 0 0 0 8 1 C 2
H20R_0 H20R_0 1_555 1 'x, y, z' 555 0 0 0 8 1 B 2
H20S_0 H20S_0 1_555 1 'x, y, z' 555 0 0 0 8 1 B 2
H20S_1 H20S_1 1_555 1 'x, y, z' 555 0 0 0 8 1 B .
P1_7_555 P1 7_555 7 '-x+1/2, -y+1/2, -z' 555 0 0 0 8 1 . .
P2_7_555 P2 7_555 7 '-x+1/2, -y+1/2, -z' 555 0 0 0 8 1 . .
P3_7_555 P3 7_555 7 '-x+1/2, -y+1/2, -z' 555 0 0 0 8 1 . .
S1_7_555 S1 7_555 7 '-x+1/2, -y+1/2, -z' 555 0 0 0 8 1 . .
S2_7_555 S2 7_555 7 '-x+1/2, -y+1/2, -z' 555 0 0 0 8 1 . .
S3_7_555 S3 7_555 7 '-x+1/2, -y+1/2, -z' 555 0 0 0 8 1 . .
S4_7_555 S4 7_555 7 '-x+1/2, -y+1/2, -z' 555 0 0 0 8 1 . .
W1_7_555 W1 7_555 7 '-x+1/2, -y+1/2, -z' 555 0 0 0 8 1 . .
W2_7_555 W2 7_555 7 '-x+1/2, -y+1/2, -z' 555 0 0 0 8 1 . .
W3_7_555 W3 7_555 7 '-x+1/2, -y+1/2, -z' 555 0 0 0 8 1 . .
C105_7_555 C105 7_555 7 '-x+1/2, -y+1/2, -z' 555 0 0 0 8 1 A .
C106_7_565 C106 7_565 7 '-x+1/2, -y+1/2, -z' 565 0 1 0 8 1 . .
C107_7_565 C107 7_565 7 '-x+1/2, -y+1/2, -z' 565 0 1 0 8 1 A .
C108_7_565 C108 7_565 7 '-x+1/2, -y+1/2, -z' 565 0 1 0 8 1 . .
C109_7_565 C109 7_565 7 '-x+1/2, -y+1/2, -z' 565 0 1 0 8 1 A .
C11'_7_555 C11' 7_555 7 '-x+1/2, -y+1/2, -z' 555 0 0 0 8 1 A 2
C110_7_565 C110 7_565 7 '-x+1/2, -y+1/2, -z' 565 0 1 0 8 1 . .
C111_7_565 C111 7_565 7 '-x+1/2, -y+1/2, -z' 565 0 1 0 8 1 A .
C112_7_565 C112 7_565 7 '-x+1/2, -y+1/2, -z' 565 0 1 0 8 1 . .
C12'_7_555 C12' 7_555 7 '-x+1/2, -y+1/2, -z' 555 0 0 0 8 1 A 2
C13'_7_555 C13' 7_555 7 '-x+1/2, -y+1/2, -z' 555 0 0 0 8 1 A 2
C14'_7_555 C14' 7_555 7 '-x+1/2, -y+1/2, -z' 555 0 0 0 8 1 A 2
C205_7_555 C205 7_555 7 '-x+1/2, -y+1/2, -z' 555 0 0 0 8 1 B .
C206_7_555 C206 7_555 7 '-x+1/2, -y+1/2, -z' 555 0 0 0 8 1 . .
C209_7_555 C209 7_555 7 '-x+1/2, -y+1/2, -z' 555 0 0 0 8 1 B .
C21'_7_555 C21' 7_555 7 '-x+1/2, -y+1/2, -z' 555 0 0 0 8 1 B 2
C210_7_455 C210 7_455 7 '-x+1/2, -y+1/2, -z' 455 -1 0 0 8 1 . .
C211_7_455 C211 7_455 7 '-x+1/2, -y+1/2, -z' 455 -1 0 0 8 1 B .
C212_7_455 C212 7_455 7 '-x+1/2, -y+1/2, -z' 455 -1 0 0 8 1 . .
C22'_7_555 C22' 7_555 7 '-x+1/2, -y+1/2, -z' 555 0 0 0 8 1 B 2
C23'_7_555 C23' 7_555 7 '-x+1/2, -y+1/2, -z' 555 0 0 0 8 1 B 2
C24'_7_555 C24' 7_555 7 '-x+1/2, -y+1/2, -z' 555 0 0 0 8 1 B 2
C27'_7_555 C27' 7_555 7 '-x+1/2, -y+1/2, -z' 555 0 0 0 8 1 B 2
C28'_7_455 C28' 7_455 7 '-x+1/2, -y+1/2, -z' 455 -1 0 0 8 1 B 2
C309_7_555 C309 7_555 7 '-x+1/2, -y+1/2, -z' 555 0 0 0 8 1 C .
C31'_7_555 C31' 7_555 7 '-x+1/2, -y+1/2, -z' 555 0 0 0 8 1 C 2
C310_7_555 C310 7_555 7 '-x+1/2, -y+1/2, -z' 555 0 0 0 8 1 . .
C311_7_555 C311 7_555 7 '-x+1/2, -y+1/2, -z' 555 0 0 0 8 1 C .
C312_7_555 C312 7_555 7 '-x+1/2, -y+1/2, -z' 555 0 0 0 8 1 . .
C32'_7_555 C32' 7_555 7 '-x+1/2, -y+1/2, -z' 555 0 0 0 8 1 C 2
C33'_7_565 C33' 7_565 7 '-x+1/2, -y+1/2, -z' 565 0 1 0 8 1 C 2
C34'_7_565 C34' 7_565 7 '-x+1/2, -y+1/2, -z' 565 0 1 0 8 1 C 2
C35'_7_555 C35' 7_555 7 '-x+1/2, -y+1/2, -z' 555 0 0 0 8 1 C 2
C36'_7_555 C36' 7_555 7 '-x+1/2, -y+1/2, -z' 555 0 0 0 8 1 C 2
C37'_7_555 C37' 7_555 7 '-x+1/2, -y+1/2, -z' 555 0 0 0 8 1 C 2
C38'_7_555 C38' 7_555 7 '-x+1/2, -y+1/2, -z' 555 0 0 0 8 1 C 2
H10I_7_555 H10I 7_555 7 '-x+1/2, -y+1/2, -z' 555 0 0 0 8 1 . .
H10J_7_565 H10J 7_565 7 '-x+1/2, -y+1/2, -z' 565 0 1 0 8 1 A .
H10K_7_565 H10K 7_565 7 '-x+1/2, -y+1/2, -z' 565 0 1 0 8 1 . .
H10L_7_565 H10L 7_565 7 '-x+1/2, -y+1/2, -z' 565 0 1 0 8 1 . .
H10M_7_565 H10M 7_565 7 '-x+1/2, -y+1/2, -z' 565 0 1 0 8 1 . .
H10N_7_565 H10N 7_565 7 '-x+1/2, -y+1/2, -z' 565 0 1 0 8 1 A .
H10O_7_565 H10O 7_565 7 '-x+1/2, -y+1/2, -z' 565 0 1 0 8 1 . .
H10P_7_565 H10P 7_565 7 '-x+1/2, -y+1/2, -z' 565 0 1 0 8 1 . .
H10Q_7_565 H10Q 7_565 7 '-x+1/2, -y+1/2, -z' 565 0 1 0 8 1 . .
H10R_7_565 H10R 7_565 7 '-x+1/2, -y+1/2, -z' 565 0 1 0 8 1 . .
H10Y_7_555 H10Y 7_555 7 '-x+1/2, -y+1/2, -z' 555 0 0 0 8 1 . .
H11A_7_555 H11A 7_555 7 '-x+1/2, -y+1/2, -z' 555 0 0 0 8 1 A .
H11B_7_565 H11B 7_565 7 '-x+1/2, -y+1/2, -z' 565 0 1 0 8 1 . .
H11C_7_565 H11C 7_565 7 '-x+1/2, -y+1/2, -z' 565 0 1 0 8 1 . .
H11D_7_565 H11D 7_565 7 '-x+1/2, -y+1/2, -z' 565 0 1 0 8 1 . .
H11E_7_565 H11E 7_565 7 '-x+1/2, -y+1/2, -z' 565 0 1 0 8 1 A .
H11F_7_565 H11F 7_565 7 '-x+1/2, -y+1/2, -z' 565 0 1 0 8 1 . .
H11G_7_565 H11G 7_565 7 '-x+1/2, -y+1/2, -z' 565 0 1 0 8 1 . .
H11H_7_565 H11H 7_565 7 '-x+1/2, -y+1/2, -z' 565 0 1 0 8 1 A 2
H11I_7_555 H11I 7_555 7 '-x+1/2, -y+1/2, -z' 555 0 0 0 8 1 A 2
H12A_7_555 H12A 7_555 7 '-x+1/2, -y+1/2, -z' 555 0 0 0 8 1 A 2
H12Z_7_555 H12Z 7_555 7 '-x+1/2, -y+1/2, -z' 555 0 0 0 8 1 A 2
H13A_7_565 H13A 7_565 7 '-x+1/2, -y+1/2, -z' 565 0 1 0 8 1 A 2
H13B_7_555 H13B 7_555 7 '-x+1/2, -y+1/2, -z' 555 0 0 0 8 1 A 2
H14A_7_555 H14A 7_555 7 '-x+1/2, -y+1/2, -z' 555 0 0 0 8 1 A 2
H14B_1_455 H14B 1_455 1 'x, y, z' 455 -1 0 0 8 1 A 2
H14B_7_555 H14B 7_555 7 '-x+1/2, -y+1/2, -z' 555 0 0 0 8 1 A 2
H14C_7_555 H14C 7_555 7 '-x+1/2, -y+1/2, -z' 555 0 0 0 8 1 A 2
H20J_7_555 H20J 7_555 7 '-x+1/2, -y+1/2, -z' 555 0 0 0 8 1 . .
H20K_7_555 H20K 7_555 7 '-x+1/2, -y+1/2, -z' 555 0 0 0 8 1 . .
H20O_7_555 H20O 7_555 7 '-x+1/2, -y+1/2, -z' 555 0 0 0 8 1 . .
H20T_7_455 H20T 7_455 7 '-x+1/2, -y+1/2, -z' 455 -1 0 0 8 1 . .
H20W_7_555 H20W 7_555 7 '-x+1/2, -y+1/2, -z' 555 0 0 0 8 1 . .
H21A_7_455 H21A 7_455 7 '-x+1/2, -y+1/2, -z' 455 -1 0 0 8 1 . .
H21B_7_455 H21B 7_455 7 '-x+1/2, -y+1/2, -z' 455 -1 0 0 8 1 . .
H21C_7_455 H21C 7_455 7 '-x+1/2, -y+1/2, -z' 455 -1 0 0 8 1 B .
H21D_7_455 H21D 7_455 7 '-x+1/2, -y+1/2, -z' 455 -1 0 0 8 1 . .
H21E_7_455 H21E 7_455 7 '-x+1/2, -y+1/2, -z' 455 -1 0 0 8 1 . .
H21F_7_555 H21F 7_555 7 '-x+1/2, -y+1/2, -z' 555 0 0 0 8 1 B 2
H21G_7_555 H21G 7_555 7 '-x+1/2, -y+1/2, -z' 555 0 0 0 8 1 B 2
H22A_7_555 H22A 7_555 7 '-x+1/2, -y+1/2, -z' 555 0 0 0 8 1 B 2
H22B_7_555 H22B 7_555 7 '-x+1/2, -y+1/2, -z' 555 0 0 0 8 1 B 2
H23A_7_555 H23A 7_555 7 '-x+1/2, -y+1/2, -z' 555 0 0 0 8 1 B 2
H23B_7_555 H23B 7_555 7 '-x+1/2, -y+1/2, -z' 555 0 0 0 8 1 B 2
H24A_7_555 H24A 7_555 7 '-x+1/2, -y+1/2, -z' 555 0 0 0 8 1 B 2
H24B_7_555 H24B 7_555 7 '-x+1/2, -y+1/2, -z' 555 0 0 0 8 1 B 2
H24C_7_555 H24C 7_555 7 '-x+1/2, -y+1/2, -z' 555 0 0 0 8 1 B 2
H27A_7_555 H27A 7_555 7 '-x+1/2, -y+1/2, -z' 555 0 0 0 8 1 B 2
H27B_7_555 H27B 7_555 7 '-x+1/2, -y+1/2, -z' 555 0 0 0 8 1 B 2
H28A_7_565 H28A 7_565 7 '-x+1/2, -y+1/2, -z' 565 0 1 0 8 1 B 2
H28B_7_455 H28B 7_455 7 '-x+1/2, -y+1/2, -z' 455 -1 0 0 8 1 B 2
H28C_7_555 H28C 7_555 7 '-x+1/2, -y+1/2, -z' 555 0 0 0 8 1 B 2
H30R_7_555 H30R 7_555 7 '-x+1/2, -y+1/2, -z' 555 0 0 0 8 1 . .
H30S_7_555 H30S 7_555 7 '-x+1/2, -y+1/2, -z' 555 0 0 0 8 1 . .
H31A_7_555 H31A 7_555 7 '-x+1/2, -y+1/2, -z' 555 0 0 0 8 1 C .
H31B_7_555 H31B 7_555 7 '-x+1/2, -y+1/2, -z' 555 0 0 0 8 1 . .
H31C_7_555 H31C 7_555 7 '-x+1/2, -y+1/2, -z' 555 0 0 0 8 1 . .
H31D_7_555 H31D 7_555 7 '-x+1/2, -y+1/2, -z' 555 0 0 0 8 1 . .
H31E_7_555 H31E 7_555 7 '-x+1/2, -y+1/2, -z' 555 0 0 0 8 1 C .
H31F_7_555 H31F 7_555 7 '-x+1/2, -y+1/2, -z' 555 0 0 0 8 1 . .
H31G_7_555 H31G 7_555 7 '-x+1/2, -y+1/2, -z' 555 0 0 0 8 1 . .
H31H_7_555 H31H 7_555 7 '-x+1/2, -y+1/2, -z' 555 0 0 0 8 1 C 2
H31Z_7_555 H31Z 7_555 7 '-x+1/2, -y+1/2, -z' 555 0 0 0 8 1 C 2
H32A_7_555 H32A 7_555 7 '-x+1/2, -y+1/2, -z' 555 0 0 0 8 1 C 2
H32B_7_555 H32B 7_555 7 '-x+1/2, -y+1/2, -z' 555 0 0 0 8 1 C 2
H33A_7_565 H33A 7_565 7 '-x+1/2, -y+1/2, -z' 565 0 1 0 8 1 C 2
H33B_7_565 H33B 7_565 7 '-x+1/2, -y+1/2, -z' 565 0 1 0 8 1 C 2
H34A_7_565 H34A 7_565 7 '-x+1/2, -y+1/2, -z' 565 0 1 0 8 1 C 2
H34B_7_565 H34B 7_565 7 '-x+1/2, -y+1/2, -z' 565 0 1 0 8 1 C 2
H34C_7_565 H34C 7_565 7 '-x+1/2, -y+1/2, -z' 565 0 1 0 8 1 C 2
H35A_7_555 H35A 7_555 7 '-x+1/2, -y+1/2, -z' 555 0 0 0 8 1 C 2
H35B_7_555 H35B 7_555 7 '-x+1/2, -y+1/2, -z' 555 0 0 0 8 1 C 2
H36A_7_555 H36A 7_555 7 '-x+1/2, -y+1/2, -z' 555 0 0 0 8 1 C 2
H36B_7_555 H36B 7_555 7 '-x+1/2, -y+1/2, -z' 555 0 0 0 8 1 C 2
H37A_7_555 H37A 7_555 7 '-x+1/2, -y+1/2, -z' 555 0 0 0 8 1 C 2
H37B_7_555 H37B 7_555 7 '-x+1/2, -y+1/2, -z' 555 0 0 0 8 1 C 2
H38A_7_555 H38A 7_555 7 '-x+1/2, -y+1/2, -z' 555 0 0 0 8 1 C 2
H38B_7_555 H38B 7_555 7 '-x+1/2, -y+1/2, -z' 555 0 0 0 8 1 C 2
H38C_7_555 H38C 7_555 7 '-x+1/2, -y+1/2, -z' 555 0 0 0 8 1 C 2
H20R_0_7_455 H20R_0 7_455 7 '-x+1/2, -y+1/2, -z' 455 -1 0 0 8 1 B 2
H20S_0_7_555 H20S_0 7_555 7 '-x+1/2, -y+1/2, -z' 555 0 0 0 8 1 B 2
H20S_1_7_455 H20S_1 7_455 7 '-x+1/2, -y+1/2, -z' 455 -1 0 0 8 1 B .
loop_
_cod_molecule_transform_label
_cod_molecule_transform_symop
P1 x,y,z
P2 x,y,z
P3 x,y,z
S1 x,y,z
S2 x,y,z
S3 x,y,z
S4 x,y,z
W1 x,y,z
W2 x,y,z
W3 x,y,z
C105 x,y,z
C106 x,y,z
C107 x,y,z
C108 x,y,z
C109 x,y,z
C11' x,y,z
C110 x,y,z
C111 x,y,z
C112 x,y,z
C12' x,y,z
C13' x,y,z
C14' x,y,z
C205 x,y,z
C206 x,y,z
C209 x,y,z
C21' x,y,z
C210 x,y,z
C211 x,y,z
C212 x,y,z
C22' x,y,z
C23' x,y,z
C24' x,y,z
C27' x,y,z
C28' x,y,z
C309 x,y,z
C31' x,y,z
C310 x,y,z
C311 x,y,z
C312 x,y,z
C32' x,y,z
C33' x,y,z
C34' x,y,z
C35' x,y,z
C36' x,y,z
C37' x,y,z
C38' x,y,z
H10I x,y,z
H10J x,y,z
H10K x,y,z
H10L x,y,z
H10M x,y,z
H10N x,y,z
H10O x,y,z
H10P x,y,z
H10Q x,y,z
H10R x,y,z
H10Y x,y,z
H11A x,y,z
H11B x,y,z
H11C x,y,z
H11D x,y,z
H11E x,y,z
H11F x,y,z
H11G x,y,z
H11H x,y,z
H11I x,y,z
H12A x,y,z
H12Z x,y,z
H13A x,y,z
H13B x,y,z
H14A x,y,z
H14C x,y,z
H20J x,y,z
H20K x,y,z
H20O x,y,z
H20T x,y,z
H20W x,y,z
H21A x,y,z
H21B x,y,z
H21C x,y,z
H21D x,y,z
H21E x,y,z
H21F x,y,z
H21G x,y,z
H22A x,y,z
H22B x,y,z
H23A x,y,z
H23B x,y,z
H24A x,y,z
H24B x,y,z
H24C x,y,z
H27A x,y,z
H27B x,y,z
H28A x,y,z
H28B x,y,z
H28C x,y,z
H30R x,y,z
H30S x,y,z
H31A x,y,z
H31B x,y,z
H31C x,y,z
H31D x,y,z
H31E x,y,z
H31F x,y,z
H31G x,y,z
H31H x,y,z
H31Z x,y,z
H32A x,y,z
H32B x,y,z
H33A x,y,z
H33B x,y,z
H34A x,y,z
H34B x,y,z
H34C x,y,z
H35A x,y,z
H35B x,y,z
H36A x,y,z
H36B x,y,z
H37A x,y,z
H37B x,y,z
H38A x,y,z
H38B x,y,z
H38C x,y,z
H20R_0 x,y,z
H20S_0 x,y,z
H20S_1 x,y,z
P1_7_555 -x+0.5,-y+0.5,-z
P2_7_555 -x+0.5,-y+0.5,-z
P3_7_555 -x+0.5,-y+0.5,-z
S1_7_555 -x+0.5,-y+0.5,-z
S2_7_555 -x+0.5,-y+0.5,-z
S3_7_555 -x+0.5,-y+0.5,-z
S4_7_555 -x+0.5,-y+0.5,-z
W1_7_555 -x+0.5,-y+0.5,-z
W2_7_555 -x+0.5,-y+0.5,-z
W3_7_555 -x+0.5,-y+0.5,-z
C105_7_555 -x+0.5,-y+0.5,-z
C106_7_565 -x+0.5,-y+1.5,-z
C107_7_565 -x+0.5,-y+1.5,-z
C108_7_565 -x+0.5,-y+1.5,-z
C109_7_565 -x+0.5,-y+1.5,-z
C11'_7_555 -x+0.5,-y+0.5,-z
C110_7_565 -x+0.5,-y+1.5,-z
C111_7_565 -x+0.5,-y+1.5,-z
C112_7_565 -x+0.5,-y+1.5,-z
C12'_7_555 -x+0.5,-y+0.5,-z
C13'_7_555 -x+0.5,-y+0.5,-z
C14'_7_555 -x+0.5,-y+0.5,-z
C205_7_555 -x+0.5,-y+0.5,-z
C206_7_555 -x+0.5,-y+0.5,-z
C209_7_555 -x+0.5,-y+0.5,-z
C21'_7_555 -x+0.5,-y+0.5,-z
C210_7_455 -x-0.5,-y+0.5,-z
C211_7_455 -x-0.5,-y+0.5,-z
C212_7_455 -x-0.5,-y+0.5,-z
C22'_7_555 -x+0.5,-y+0.5,-z
C23'_7_555 -x+0.5,-y+0.5,-z
C24'_7_555 -x+0.5,-y+0.5,-z
C27'_7_555 -x+0.5,-y+0.5,-z
C28'_7_455 -x-0.5,-y+0.5,-z
C309_7_555 -x+0.5,-y+0.5,-z
C31'_7_555 -x+0.5,-y+0.5,-z
C310_7_555 -x+0.5,-y+0.5,-z
C311_7_555 -x+0.5,-y+0.5,-z
C312_7_555 -x+0.5,-y+0.5,-z
C32'_7_555 -x+0.5,-y+0.5,-z
C33'_7_565 -x+0.5,-y+1.5,-z
C34'_7_565 -x+0.5,-y+1.5,-z
C35'_7_555 -x+0.5,-y+0.5,-z
C36'_7_555 -x+0.5,-y+0.5,-z
C37'_7_555 -x+0.5,-y+0.5,-z
C38'_7_555 -x+0.5,-y+0.5,-z
H10I_7_555 -x+0.5,-y+0.5,-z
H10J_7_565 -x+0.5,-y+1.5,-z
H10K_7_565 -x+0.5,-y+1.5,-z
H10L_7_565 -x+0.5,-y+1.5,-z
H10M_7_565 -x+0.5,-y+1.5,-z
H10N_7_565 -x+0.5,-y+1.5,-z
H10O_7_565 -x+0.5,-y+1.5,-z
H10P_7_565 -x+0.5,-y+1.5,-z
H10Q_7_565 -x+0.5,-y+1.5,-z
H10R_7_565 -x+0.5,-y+1.5,-z
H10Y_7_555 -x+0.5,-y+0.5,-z
H11A_7_555 -x+0.5,-y+0.5,-z
H11B_7_565 -x+0.5,-y+1.5,-z
H11C_7_565 -x+0.5,-y+1.5,-z
H11D_7_565 -x+0.5,-y+1.5,-z
H11E_7_565 -x+0.5,-y+1.5,-z
H11F_7_565 -x+0.5,-y+1.5,-z
H11G_7_565 -x+0.5,-y+1.5,-z
H11H_7_565 -x+0.5,-y+1.5,-z
H11I_7_555 -x+0.5,-y+0.5,-z
H12A_7_555 -x+0.5,-y+0.5,-z
H12Z_7_555 -x+0.5,-y+0.5,-z
H13A_7_565 -x+0.5,-y+1.5,-z
H13B_7_555 -x+0.5,-y+0.5,-z
H14A_7_555 -x+0.5,-y+0.5,-z
H14B_1_455 x-1,y,z
H14B_7_555 -x+0.5,-y+0.5,-z
H14C_7_555 -x+0.5,-y+0.5,-z
H20J_7_555 -x+0.5,-y+0.5,-z
H20K_7_555 -x+0.5,-y+0.5,-z
H20O_7_555 -x+0.5,-y+0.5,-z
H20T_7_455 -x-0.5,-y+0.5,-z
H20W_7_555 -x+0.5,-y+0.5,-z
H21A_7_455 -x-0.5,-y+0.5,-z
H21B_7_455 -x-0.5,-y+0.5,-z
H21C_7_455 -x-0.5,-y+0.5,-z
H21D_7_455 -x-0.5,-y+0.5,-z
H21E_7_455 -x-0.5,-y+0.5,-z
H21F_7_555 -x+0.5,-y+0.5,-z
H21G_7_555 -x+0.5,-y+0.5,-z
H22A_7_555 -x+0.5,-y+0.5,-z
H22B_7_555 -x+0.5,-y+0.5,-z
H23A_7_555 -x+0.5,-y+0.5,-z
H23B_7_555 -x+0.5,-y+0.5,-z
H24A_7_555 -x+0.5,-y+0.5,-z
H24B_7_555 -x+0.5,-y+0.5,-z
H24C_7_555 -x+0.5,-y+0.5,-z
H27A_7_555 -x+0.5,-y+0.5,-z
H27B_7_555 -x+0.5,-y+0.5,-z
H28A_7_565 -x+0.5,-y+1.5,-z
H28B_7_455 -x-0.5,-y+0.5,-z
H28C_7_555 -x+0.5,-y+0.5,-z
H30R_7_555 -x+0.5,-y+0.5,-z
H30S_7_555 -x+0.5,-y+0.5,-z
H31A_7_555 -x+0.5,-y+0.5,-z
H31B_7_555 -x+0.5,-y+0.5,-z
H31C_7_555 -x+0.5,-y+0.5,-z
H31D_7_555 -x+0.5,-y+0.5,-z
H31E_7_555 -x+0.5,-y+0.5,-z
H31F_7_555 -x+0.5,-y+0.5,-z
H31G_7_555 -x+0.5,-y+0.5,-z
H31H_7_555 -x+0.5,-y+0.5,-z
H31Z_7_555 -x+0.5,-y+0.5,-z
H32A_7_555 -x+0.5,-y+0.5,-z
H32B_7_555 -x+0.5,-y+0.5,-z
H33A_7_565 -x+0.5,-y+1.5,-z
H33B_7_565 -x+0.5,-y+1.5,-z
H34A_7_565 -x+0.5,-y+1.5,-z
H34B_7_565 -x+0.5,-y+1.5,-z
H34C_7_565 -x+0.5,-y+1.5,-z
H35A_7_555 -x+0.5,-y+0.5,-z
H35B_7_555 -x+0.5,-y+0.5,-z
H36A_7_555 -x+0.5,-y+0.5,-z
H36B_7_555 -x+0.5,-y+0.5,-z
H37A_7_555 -x+0.5,-y+0.5,-z
H37B_7_555 -x+0.5,-y+0.5,-z
H38A_7_555 -x+0.5,-y+0.5,-z
H38B_7_555 -x+0.5,-y+0.5,-z
H38C_7_555 -x+0.5,-y+0.5,-z
H20R_0_7_455 -x-0.5,-y+0.5,-z
H20S_0_7_555 -x+0.5,-y+0.5,-z
H20S_1_7_455 -x-0.5,-y+0.5,-z
