data_1100656_molecule_1
loop_
_publ_author_name
'Soh-ichi, Kitoh'
'Hitoshi, Senda'
'Ko-Ki, Kunimoto'
_publ_section_title
;
Crystal Structures of Chiral and Racemic 4-Methyl-5-phenyl-1,3-oxazolidine-
2-thione
;
_journal_name_full               ' Analytical Sciences'
_journal_page_first              x15
_journal_page_last               x16
_journal_volume                  19
_journal_year                    2003
_cell_length_a                   10.104(2)
_cell_length_b                   32.447(1)
_cell_length_c                   6.014(1)
_cell_angle_alpha                90
_cell_angle_beta                 90
_cell_angle_gamma                90
_cell_measurement_temperature    123.2
_diffrn_radiation_type           'Mo K\a'
_diffrn_radiation_wavelength     0.7107
_diffrn_reflns_theta_full        27.48
_diffrn_reflns_theta_max         27.48
_diffrn_reflns_limit_h_max       10
_diffrn_reflns_limit_h_min       -13
_diffrn_reflns_limit_k_max       40
_diffrn_reflns_limit_k_min       -41
_diffrn_reflns_limit_l_max       7
_diffrn_reflns_limit_l_min       -7
_cod_src_refine_ls_wR_factor_ref 0.0398
_cod_src_refine_ls_R_factor_gt   0.0268
_cod_src_chemical_formula_moiety 'C10 H11 N O S '
_cod_src_chemical_formula_sum    'C10 H11 N O S'
_audit_creation_method
'Id: cif_molecule 2642 2014-05-02 16:50:24Z saulius'
_chemical_formula_sum            'C10 H11 N O S'
_cod_data_source_file            1100656.cif
_cod_data_source_block           1100656
_cell_formula_units_Z            1
_symmetry_space_group_name_H-M   'P 1'
loop_ _symmetry_equiv_pos_as_xyz 'x, y, z'
loop_
_atom_site_label
_atom_site_type_symbol
_atom_site_fract_x
_atom_site_fract_y
_atom_site_fract_z
_atom_site_U_iso_or_equiv
_atom_site_occupancy
C(1B) C 0.149600 0.477060 0.562000 0.0204(4) 1.00
C(2B) C 0.205200 0.504280 0.905900 0.0198(4) 1.00
C(3B) C 0.216900 0.537110 0.720900 0.0200(4) 1.00
C(4B) C 0.336200 0.488140 0.995100 0.0228(4) 1.00
C(5B) C 0.339700 0.563440 0.729200 0.0209(4) 1.00
C(6B) C 0.358500 0.588040 0.916700 0.0251(4) 1.00
C(7B) C 0.472600 0.611760 0.939100 0.0302(5) 1.00
C(8B) C 0.567300 0.611450 0.772900 0.0311(5) 1.00
C(9B) C 0.547300 0.587950 0.583500 0.0302(5) 1.00
H(1B) H 0.120000 0.454900 0.821000 0.033(7) 1.00
H(3B) H 0.133000 0.555700 0.712000 0.033(6) 1.00
H(5B) H 0.395000 0.481400 0.868000 0.029(6) 1.00
H(9B) H 0.647000 0.626400 0.784000 0.038(7) 1.00
N(1B) N 0.137500 0.472370 0.777700 0.0208(4) 1.00
O(1B) O 0.211000 0.513060 0.515100 0.0221(3) 1.00
S(1B) S 0.098510 0.445420 0.360010 0.0239(1) 1.00
C(10B) C 0.434500 0.563760 0.561400 0.0247(4) 1.00
H(10B) H 0.614000 0.587600 0.472000 0.032(6) 1.00
H(11B) H 0.419000 0.546600 0.448000 0.023(5) 1.00
H(2B)_1_556 H 0.153000 0.515200 1.024000 0.025(6) 1.00
H(4B)_1_556 H 0.320000 0.463400 1.093000 0.023(5) 1.00
H(6B)_1_556 H 0.380000 0.507000 1.083000 0.029(6) 1.00
H(7B)_1_556 H 0.299000 0.589300 1.018000 0.040(7) 1.00
H(8B)_1_556 H 0.484000 0.627300 1.071000 0.031(6) 1.00
loop_
_cod_molecule_atom_label
_cod_molecule_atom_orig_label
_cod_molecule_atom_symmetry
_cod_molecule_atom_symop_id
_cod_molecule_atom_symop_xyz
_cod_molecule_atom_transl_id
_cod_molecule_atom_transl_x
_cod_molecule_atom_transl_y
_cod_molecule_atom_transl_z
_cod_molecule_atom_mult
_cod_molecule_atom_mult_ratio
C(1B) C(1B) 1_555 1 x,y,z 555 0 0 0 4 1
C(2B) C(2B) 1_555 1 x,y,z 555 0 0 0 4 1
C(3B) C(3B) 1_555 1 x,y,z 555 0 0 0 4 1
C(4B) C(4B) 1_555 1 x,y,z 555 0 0 0 4 1
C(5B) C(5B) 1_555 1 x,y,z 555 0 0 0 4 1
C(6B) C(6B) 1_555 1 x,y,z 555 0 0 0 4 1
C(7B) C(7B) 1_555 1 x,y,z 555 0 0 0 4 1
C(8B) C(8B) 1_555 1 x,y,z 555 0 0 0 4 1
C(9B) C(9B) 1_555 1 x,y,z 555 0 0 0 4 1
H(1B) H(1B) 1_555 1 x,y,z 555 0 0 0 4 1
H(3B) H(3B) 1_555 1 x,y,z 555 0 0 0 4 1
H(5B) H(5B) 1_555 1 x,y,z 555 0 0 0 4 1
H(9B) H(9B) 1_555 1 x,y,z 555 0 0 0 4 1
N(1B) N(1B) 1_555 1 x,y,z 555 0 0 0 4 1
O(1B) O(1B) 1_555 1 x,y,z 555 0 0 0 4 1
S(1B) S(1B) 1_555 1 x,y,z 555 0 0 0 4 1
C(10B) C(10B) 1_555 1 x,y,z 555 0 0 0 4 1
H(10B) H(10B) 1_555 1 x,y,z 555 0 0 0 4 1
H(11B) H(11B) 1_555 1 x,y,z 555 0 0 0 4 1
H(2B)_1_556 H(2B) 1_556 1 x,y,z 556 0 0 1 4 1
H(4B)_1_556 H(4B) 1_556 1 x,y,z 556 0 0 1 4 1
H(6B)_1_556 H(6B) 1_556 1 x,y,z 556 0 0 1 4 1
H(7B)_1_556 H(7B) 1_556 1 x,y,z 556 0 0 1 4 1
H(8B)_1_556 H(8B) 1_556 1 x,y,z 556 0 0 1 4 1
