data_1100656_molecule_0
loop_
_publ_author_name
'Soh-ichi, Kitoh'
'Hitoshi, Senda'
'Ko-Ki, Kunimoto'
_publ_section_title
;
Crystal Structures of Chiral and Racemic 4-Methyl-5-phenyl-1,3-oxazolidine-
2-thione
;
_journal_name_full               ' Analytical Sciences'
_journal_page_first              x15
_journal_page_last               x16
_journal_volume                  19
_journal_year                    2003
_cell_length_a                   10.104(2)
_cell_length_b                   32.447(1)
_cell_length_c                   6.014(1)
_cell_angle_alpha                90
_cell_angle_beta                 90
_cell_angle_gamma                90
_cell_measurement_temperature    123.2
_diffrn_radiation_type           'Mo K\a'
_diffrn_radiation_wavelength     0.7107
_diffrn_reflns_theta_full        27.48
_diffrn_reflns_theta_max         27.48
_diffrn_reflns_limit_h_max       10
_diffrn_reflns_limit_h_min       -13
_diffrn_reflns_limit_k_max       40
_diffrn_reflns_limit_k_min       -41
_diffrn_reflns_limit_l_max       7
_diffrn_reflns_limit_l_min       -7
_cod_src_refine_ls_wR_factor_ref 0.0398
_cod_src_refine_ls_R_factor_gt   0.0268
_cod_src_chemical_formula_moiety 'C10 H11 N O S '
_cod_src_chemical_formula_sum    'C10 H11 N O S'
_audit_creation_method
'Id: cif_molecule 2642 2014-05-02 16:50:24Z saulius'
_chemical_formula_sum            'C10 H11 N O S'
_cod_data_source_file            1100656.cif
_cod_data_source_block           1100656
_cell_formula_units_Z            1
_symmetry_space_group_name_H-M   'P 1'
loop_ _symmetry_equiv_pos_as_xyz 'x, y, z'
loop_
_atom_site_label
_atom_site_type_symbol
_atom_site_fract_x
_atom_site_fract_y
_atom_site_fract_z
_atom_site_U_iso_or_equiv
_atom_site_occupancy
C(1A) C -0.054100 -0.343940 -0.750200 0.0224(4) 1.00
C(2A) C -0.117900 -0.312410 -0.418900 0.0244(4) 1.00
C(3A) C -0.055900 -0.280480 -0.581800 0.0237(4) 1.00
C(4A) C -0.265700 -0.308910 -0.378400 0.0331(5) 1.00
C(5A) C -0.131200 -0.241080 -0.615000 0.0233(4) 1.00
C(6A) C -0.126700 -0.211210 -0.448300 0.0299(5) 1.00
C(7A) C -0.197500 -0.174520 -0.472900 0.0331(5) 1.00
C(8A) C -0.270100 -0.167410 -0.662600 0.0314(5) 1.00
C(9A) C -0.273700 -0.196620 -0.829600 0.0352(5) 1.00
H(1A) H -0.101000 -0.374000 -0.491000 0.051(8) 1.00
H(2A) H -0.076000 -0.311000 -0.279000 0.022(6) 1.00
H(4A) H -0.295000 -0.331000 -0.289000 0.040(7) 1.00
H(5A) H -0.311000 -0.308000 -0.518000 0.035(7) 1.00
H(6A) H -0.293000 -0.282300 -0.288000 0.039(7) 1.00
H(7A) H -0.073000 -0.216400 -0.311000 0.042(7) 1.00
H(8A) H -0.195000 -0.155400 -0.357000 0.044(7) 1.00
H(9A) H -0.316000 -0.141600 -0.687000 0.033(6) 1.00
N(1A) N -0.085600 -0.350230 -0.540600 0.0254(4) 1.00
O(1A) O -0.045800 -0.302920 -0.792500 0.0278(3) 1.00
S(1A) S -0.026840 -0.378220 -0.950140 0.0265(1) 1.00
C(10A) C -0.204800 -0.233600 -0.806100 0.0305(5) 1.00
H(10A) H -0.313000 -0.191600 -0.972000 0.046(8) 1.00
H(11A) H -0.212000 -0.253100 -0.922000 0.036(7) 1.00
H(3A)_1_455 H 0.034000 -0.276100 -0.521000 0.024(6) 1.00
loop_
_cod_molecule_atom_label
_cod_molecule_atom_orig_label
_cod_molecule_atom_symmetry
_cod_molecule_atom_symop_id
_cod_molecule_atom_symop_xyz
_cod_molecule_atom_transl_id
_cod_molecule_atom_transl_x
_cod_molecule_atom_transl_y
_cod_molecule_atom_transl_z
_cod_molecule_atom_mult
_cod_molecule_atom_mult_ratio
C(1A) C(1A) 1_555 1 x,y,z 555 0 0 0 4 1
C(2A) C(2A) 1_555 1 x,y,z 555 0 0 0 4 1
C(3A) C(3A) 1_555 1 x,y,z 555 0 0 0 4 1
C(4A) C(4A) 1_555 1 x,y,z 555 0 0 0 4 1
C(5A) C(5A) 1_555 1 x,y,z 555 0 0 0 4 1
C(6A) C(6A) 1_555 1 x,y,z 555 0 0 0 4 1
C(7A) C(7A) 1_555 1 x,y,z 555 0 0 0 4 1
C(8A) C(8A) 1_555 1 x,y,z 555 0 0 0 4 1
C(9A) C(9A) 1_555 1 x,y,z 555 0 0 0 4 1
H(1A) H(1A) 1_555 1 x,y,z 555 0 0 0 4 1
H(2A) H(2A) 1_555 1 x,y,z 555 0 0 0 4 1
H(4A) H(4A) 1_555 1 x,y,z 555 0 0 0 4 1
H(5A) H(5A) 1_555 1 x,y,z 555 0 0 0 4 1
H(6A) H(6A) 1_555 1 x,y,z 555 0 0 0 4 1
H(7A) H(7A) 1_555 1 x,y,z 555 0 0 0 4 1
H(8A) H(8A) 1_555 1 x,y,z 555 0 0 0 4 1
H(9A) H(9A) 1_555 1 x,y,z 555 0 0 0 4 1
N(1A) N(1A) 1_555 1 x,y,z 555 0 0 0 4 1
O(1A) O(1A) 1_555 1 x,y,z 555 0 0 0 4 1
S(1A) S(1A) 1_555 1 x,y,z 555 0 0 0 4 1
C(10A) C(10A) 1_555 1 x,y,z 555 0 0 0 4 1
H(10A) H(10A) 1_555 1 x,y,z 555 0 0 0 4 1
H(11A) H(11A) 1_555 1 x,y,z 555 0 0 0 4 1
H(3A)_1_455 H(3A) 1_455 1 x,y,z 455 -1 0 0 4 1
