#------------------------------------------------------------------------------
#$Date$
#$Revision$
#$URL$
#------------------------------------------------------------------------------
#
# This file is available in the Crystallography Open Database (COD),
# http://www.crystallography.net/
#
# All data on this site have been placed in the public domain by the
# contributors.
#
data_2014244
_journal_name_full  'Acta Crystallographica, Section C'
_journal_year  2004
_journal_volume  60
_journal_page_first  o617
_journal_page_last  o622
_publ_section_title
;
Supramolecular structures of three configurational isomers of
1-phenylethanaminium malate(1-)
;
loop_
_publ_author_name
  'Turkington, David E.'
  'Ferguson, George'
  'Lough, Alan J.'
  'Glidewell, Christopher'
_chemical_formula_moiety  'C8 H12 N + , C4 H5 O5 -'
_chemical_formula_sum  'C12 H17 N O5'
_chemical_formula_iupac  'C8 H12 N + , C4 H5 O5 -'
_chemical_formula_weight  255.27
_symmetry_cell_setting  monoclinic
_symmetry_space_group_name_H-M  'P 21'
_symmetry_space_group_name_Hall  'P 2yb'
loop_
_symmetry_equiv_pos_as_xyz
  'x, y, z'
  '-x, y+1/2, -z'
_cell_length_a  6.4227(5)
_cell_length_b  13.5815(10)
_cell_length_c  7.5439(3)
_cell_angle_alpha  90.00
_cell_angle_beta  108.665(4)
_cell_angle_gamma  90.00
_cell_volume  623.44(7)
_cell_formula_units_Z  2
_cell_measurement_temperature  150.0(10)
_exptl_crystal_density_diffrn  1.360
_diffrn_ambient_temperature  150.0(10)
loop_
_atom_site_label
_atom_site_fract_x
_atom_site_fract_y
_atom_site_fract_z
_atom_site_U_iso_or_equiv
_atom_site_adp_type
_atom_site_calc_flag
_atom_site_refinement_flags
_atom_site_occupancy
_atom_site_disorder_assembly
_atom_site_disorder_group
_atom_site_type_symbol
  O1 0.2835(2) 0.56554(15) 0.52472(19) 0.0384(4) Uani d . 1 A -1 O
  O2 -0.0794(2) 0.55913(14) 0.3834(2) 0.0396(4) Uani d . 1 A -1 O
  O3 0.1967(3) 0.60310(14) -0.1758(2) 0.0418(4) Uani d . 1 A -1 O
  O4 0.4973(3) 0.51581(17) -0.0412(2) 0.0507(5) Uani d . 1 A -1 O
  O5 -0.0516(3) 0.52137(15) 0.0518(2) 0.0442(5) Uani d . 1 A -1 O
  C1 0.1127(3) 0.55626(19) 0.3832(3) 0.0364(5) Uani d . 1 A -1 C
  C2 0.1540(4) 0.5258(3) 0.1998(4) 0.0318(8) Uani d P 0.745(8) A -1 C
  C3 0.3035(5) 0.6000(3) 0.1495(4) 0.0342(9) Uani d P 0.745(8) A -1 C
  C4 0.3444(4) 0.5657(2) -0.0313(3) 0.0445(6) Uani d . 1 A -1 C
  C21 0.1191(12) 0.5796(8) 0.1802(9) 0.035(2) Uiso d PD 0.255(8) A -2 C
  C31 0.3321(13) 0.5373(8) 0.1634(10) 0.035(2) Uiso d PD 0.255(8) A -2 C
  N1 0.7339(3) 0.50000(14) 0.6569(2) 0.0311(4) Uani d . 1 . . N
  C11 0.5908(4) 0.34122(16) 0.5052(3) 0.0340(5) Uani d . 1 . . C
  C12 0.6286(4) 0.3399(2) 0.3339(3) 0.0444(6) Uani d . 1 . . C
  C13 0.4807(5) 0.2935(2) 0.1808(4) 0.0534(7) Uani d . 1 . . C
  C14 0.2954(5) 0.24796(19) 0.1973(4) 0.0546(7) Uani d . 1 . . C
  C15 0.2561(5) 0.2491(2) 0.3663(5) 0.0529(7) Uani d . 1 . . C
  C16 0.4027(4) 0.29537(18) 0.5185(4) 0.0412(5) Uani d . 1 . . C
  C17 0.7470(4) 0.38941(17) 0.6764(3) 0.0336(5) Uani d . 1 . . C
  C18 0.9852(4) 0.35830(18) 0.7166(4) 0.0424(5) Uani d . 1 . . C
  H3 0.2278 0.5895 -0.2730 0.063 Uiso calc R 1 A -1 H
  H5 -0.1551 0.5259 0.0968 0.066 Uiso calc R 1 A -1 H
  H2A 0.2250 0.4594 0.2165 0.038 Uiso calc PR 0.745(8) A -1 H
  H3A 0.4448 0.6048 0.2525 0.041 Uiso calc PR 0.745(8) A -1 H
  H3B 0.2335 0.6658 0.1304 0.041 Uiso calc PR 0.745(8) A -1 H
  H21 0.1027 0.6515 0.1504 0.042 Uiso calc PR 0.255(8) A -2 H
  H31A 0.3335 0.4648 0.1769 0.042 Uiso calc PR 0.255(8) A -2 H
  H31B 0.4599 0.5647 0.2628 0.042 Uiso calc PR 0.255(8) A -2 H
  H1A 0.5905 0.5190 0.6179 0.047 Uiso calc R 1 . . H
  H1B 0.7986 0.5194 0.5715 0.047 Uiso calc R 1 . . H
  H1C 0.8047 0.5283 0.7695 0.047 Uiso calc R 1 . . H
  H12 0.7560 0.3707 0.3214 0.053 Uiso calc R 1 . . H
  H13 0.5071 0.2932 0.0639 0.064 Uiso calc R 1 . . H
  H14 0.1955 0.2159 0.0924 0.065 Uiso calc R 1 . . H
  H15 0.1285 0.2183 0.3781 0.063 Uiso calc R 1 . . H
  H16 0.3745 0.2958 0.6347 0.049 Uiso calc R 1 . . H
  H17 0.7010 0.3708 0.7867 0.040 Uiso calc R 1 . . H
  H18A 1.0755 0.3874 0.8352 0.064 Uiso calc R 1 . . H
  H18B 1.0380 0.3811 0.6153 0.064 Uiso calc R 1 . . H
  H18C 0.9957 0.2864 0.7252 0.064 Uiso calc R 1 . . H
loop_
_atom_site_aniso_label
_atom_site_aniso_U_11
_atom_site_aniso_U_22
_atom_site_aniso_U_33
_atom_site_aniso_U_12
_atom_site_aniso_U_13
_atom_site_aniso_U_23
  O1 0.0317(7) 0.0544(9) 0.0305(7) 0.0006(7) 0.0118(6) -0.0026(7)
  O2 0.0323(7) 0.0563(11) 0.0318(7) 0.0014(8) 0.0126(6) -0.0007(7)
  O3 0.0392(8) 0.0571(10) 0.0338(8) 0.0036(7) 0.0184(7) -0.0037(7)
  O4 0.0364(8) 0.0753(13) 0.0399(9) 0.0046(9) 0.0116(7) 0.0115(8)
  O5 0.0310(7) 0.0713(12) 0.0313(7) -0.0106(8) 0.0113(6) -0.0063(7)
  C1 0.0351(10) 0.0470(13) 0.0288(9) -0.0030(10) 0.0127(8) -0.0010(9)
  C2 0.0291(14) 0.0396(19) 0.0279(13) -0.0019(12) 0.0108(11) -0.0024(11)
  C3 0.0350(15) 0.0414(19) 0.0282(14) -0.0043(13) 0.0129(11) -0.0039(11)
  C4 0.0304(10) 0.0739(16) 0.0313(10) -0.0090(12) 0.0128(8) -0.0014(11)
  C1A 0.0351(10) 0.0470(13) 0.0288(9) -0.0030(10) 0.0127(8) -0.0010(9)
  C4A 0.0304(10) 0.0739(16) 0.0313(10) -0.0090(12) 0.0128(8) -0.0014(11)
  O5A 0.0310(7) 0.0713(12) 0.0313(7) -0.0106(8) 0.0113(6) -0.0063(7)
  N1 0.0297(8) 0.0345(9) 0.0309(8) 0.0016(7) 0.0124(7) -0.0017(7)
  C11 0.0321(10) 0.0325(10) 0.0366(10) 0.0009(9) 0.0101(9) -0.0012(8)
  C12 0.0486(13) 0.0490(13) 0.0371(12) -0.0040(11) 0.0157(10) -0.0045(10)
  C13 0.0707(18) 0.0464(14) 0.0378(12) 0.0014(13) 0.0099(12) -0.0083(11)
  C14 0.0558(15) 0.0326(12) 0.0575(17) -0.0004(11) -0.0068(12) -0.0069(11)
  C15 0.0419(13) 0.0362(13) 0.0719(19) -0.0038(10) 0.0061(12) -0.0017(12)
  C16 0.0363(11) 0.0344(12) 0.0531(13) -0.0005(9) 0.0147(10) 0.0004(10)
  C17 0.0338(10) 0.0349(11) 0.0327(10) -0.0007(9) 0.0114(9) 0.0022(8)
  C18 0.0360(11) 0.0406(12) 0.0474(13) 0.0059(9) 0.0090(10) 0.0008(10)
loop_
_geom_bond_atom_site_label_1
_geom_bond_atom_site_label_2
_geom_bond_site_symmetry_2
_geom_bond_distance
_geom_bond_publ_flag
  O1 C1 . 1.269(2) no
  O2 C1 . 1.235(3) no
  O3 C4 . 1.298(3) no
  O3 H3 . 0.84 no
  O4 C4 . 1.215(3) no
  O5 C2 . 1.432(3) no
  O5 H5 . 0.84 no
  C1 C2 . 1.547(3) no
  C2 C3 . 1.521(4) no
  C2 H2A . 1.00 no
  C3 C4 . 1.541(3) no
  C3 H3A . 0.99 no
  C3 H3B . 0.99 no
  C21 C31 . 1.526(9) no
  C21 H21 . 1.00 no
  C31 H31A . 0.99 no
  C31 H31B . 0.99 no
  N1 C17 . 1.509(3) no
  N1 H1A . 0.91 no
  N1 H1B . 0.91 no
  N1 H1C . 0.91 no
  C11 C12 . 1.390(3) no
  C11 C16 . 1.391(3) no
  C11 C17 . 1.508(3) no
  C12 C13 . 1.389(4) no
  C12 H12 . 0.95 no
  C14 C15 . 1.376(4) no
  C14 C13 . 1.382(4) no
  C14 H14 . 0.95 no
  C13 H13 . 0.95 no
  C15 C16 . 1.381(4) no
  C15 H15 . 0.95 no
  C16 H16 . 0.95 no
  C17 C18 . 1.522(3) no
  C17 H17 . 1.00 no
  C18 H18A . 0.98 no
  C18 H18B . 0.98 no
  C18 H18C . 0.98 no
