#------------------------------------------------------------------------------
#$Date$
#$Revision$
#$URL$
#------------------------------------------------------------------------------
#
# This file is available in the Crystallography Open Database (COD),
# http://www.crystallography.net/. The original data for this entry
# were provided by IUCr Journals, http://journals.iucr.org/.
#
# The file may be used within the scientific community so long as
# proper attribution is given to the journal article from which the
# data were obtained.
#
data_2019572
loop_
_publ_author_name
'Neis, Christian'
'Kradolfer, Thomas'
'Hegetschweiler, Kaspar'
_publ_section_title
;
 Formation of lithium, sodium and potassium complexes with
 1,3,5-triamino-1,3,5-trideoxy-<i>cis</i>-inositol (taci)
;
_journal_coeditor_code           CU3054
_journal_issue                   6
_journal_name_full               'Acta Crystallographica Section C'
_journal_page_first
;
;
_journal_paper_doi               10.1107/S2053229614011036
_journal_volume                  70
_journal_year                    2014
_chemical_formula_iupac          '[Na (C6 H15 N3 O3)2] I'
_chemical_formula_moiety         'C12 H30 N6 Na O6 +, I-'
_chemical_formula_sum            'C12 H30 I N6 Na O6'
_chemical_formula_weight         504.31
_chemical_name_systematic
'Bis(1,3,5-triamino-1,3,5-trideoxy-<i>cis</i>-inositol-\k^3^<i>O</i>^2^,<i>O</i>^4^,<i>O</i>^6^)sodium(I) iodide'
_space_group_IT_number           148
_symmetry_cell_setting           trigonal
_symmetry_space_group_name_Hall  '-R 3'
_symmetry_space_group_name_H-M   'R -3 :H'
_atom_sites_solution_hydrogens   geom
_atom_sites_solution_primary     direct
_atom_sites_solution_secondary   difmap
_cell_angle_alpha                90.00
_cell_angle_beta                 90.00
_cell_angle_gamma                120.00
_cell_formula_units_Z            3
_cell_length_a                   10.9637(6)
_cell_length_b                   10.9637(6)
_cell_length_c                   14.3641(8)
_cell_measurement_reflns_used    4773
_cell_measurement_temperature    123(2)
_cell_measurement_theta_max      33.17
_cell_measurement_theta_min      2.57
_cell_volume                     1495.28(14)
_computing_cell_refinement       'SAINT (Bruker, 2010)'
_computing_data_collection       'APEX2 (Bruker, 2010)'
_computing_data_reduction        'SAINT (Bruker, 2010)'
_computing_molecular_graphics    'DIAMOND (Brandenburg, 2012)'
_computing_publication_material
;
SHELXL97 (Sheldrick, 2008) and PLATON (Spek, 2009)
;
_computing_structure_refinement  'SHELXL97 (Sheldrick, 2008)'
_computing_structure_solution    'SHELXS97 (Sheldrick, 2008)'
_diffrn_ambient_temperature      123(2)
_diffrn_measured_fraction_theta_full 0.997
_diffrn_measured_fraction_theta_max 0.997
_diffrn_measurement_device_type
'Bruker Nonius X8 APEX diffractometer with Kappa CCD area detector'
_diffrn_measurement_method       '\f and \w scans'
_diffrn_radiation_monochromator  graphite
_diffrn_radiation_source         'fine-focus sealed tube'
_diffrn_radiation_type           MoK\a
_diffrn_radiation_wavelength     0.71073
_diffrn_reflns_av_R_equivalents  0.0140
_diffrn_reflns_av_sigmaI/netI    0.0096
_diffrn_reflns_limit_h_max       14
_diffrn_reflns_limit_h_min       -13
_diffrn_reflns_limit_k_max       9
_diffrn_reflns_limit_k_min       -12
_diffrn_reflns_limit_l_max       18
_diffrn_reflns_limit_l_min       -18
_diffrn_reflns_number            3194
_diffrn_reflns_theta_full        26.99
_diffrn_reflns_theta_max         26.99
_diffrn_reflns_theta_min         2.57
_diffrn_standards_number         0
_exptl_absorpt_coefficient_mu    1.668
_exptl_absorpt_correction_T_max  0.6345
_exptl_absorpt_correction_T_min  0.3637
_exptl_absorpt_correction_type   multi-scan
_exptl_absorpt_process_details   '(SADABS; Bruker, 2010)'
_exptl_crystal_colour            colourless
_exptl_crystal_density_diffrn    1.680
_exptl_crystal_density_method    'not measured'
_exptl_crystal_description       plate
_exptl_crystal_F_000             768
_exptl_crystal_size_max          0.76
_exptl_crystal_size_mid          0.60
_exptl_crystal_size_min          0.30
_refine_diff_density_max         0.418
_refine_diff_density_min         -0.299
_refine_ls_extinction_method     none
_refine_ls_goodness_of_fit_ref   1.218
_refine_ls_hydrogen_treatment    mixed
_refine_ls_matrix_type           full
_refine_ls_number_parameters     50
_refine_ls_number_reflns         733
_refine_ls_number_restraints     3
_refine_ls_restrained_S_all      1.216
_refine_ls_R_factor_all          0.0117
_refine_ls_R_factor_gt           0.0117
_refine_ls_shift/su_max          0.000
_refine_ls_shift/su_mean         0.000
_refine_ls_structure_factor_coef Fsqd
_refine_ls_weighting_details
'calc w = 1/[\s^2^(Fo^2^)+(0.0179P)^2^+1.6340P] where P=(Fo^2^+2Fc^2^)/3'
_refine_ls_weighting_scheme      calc
_refine_ls_wR_factor_gt          0.0340
_refine_ls_wR_factor_ref         0.0340
_reflns_number_gt                733
_reflns_number_total             733
_reflns_threshold_expression     I>2\s(I)
_iucr_refine_instructions_details
;
REM Solution 1  R1  0.073,  Alpha = 0.0685  in R-3
REM C N O Na1.167 I0.167
TITL sh3335 in R-3
CELL  0.71073  10.9637  10.9637  14.3641   90.000   90.000  120.000
ZERR    3.00   0.0006   0.0006   0.0008   0.000   0.000   0.000
LATT  3
SYMM -Y, X-Y, Z
SYMM -X+Y, -X, Z
SFAC C H N O NA I
UNIT 36 90 18 18 3 3
TEMP -150
SIZE 0.30 0.60 0.76
L.S. 8
BOND
BOND $H
LIST 4
FMAP 2
PLAN 5
acta
conf
omit -3 54
HTAB
DFIX 0.84 O1 H1O
DFIX 0.88 N2 H2a
DFIX 0.88 N2 H2b
eqiv $1 y, -x+y, -z+1
HTAB N2 I1
HTAB O1 N2_$1
WGHT    0.017900    1.634000
FVAR       0.44673
I1    6    0.000000    0.000000    0.500000    10.16667    0.01396    0.01396 =
         0.00959    0.00000    0.00000    0.00698
O1    4    0.364777    0.527136    0.552606    11.00000    0.01434    0.01089 =
         0.00998    0.00128    0.00011    0.00808
H1O   2    0.368577    0.453207    0.559339    11.00000   -1.50000
C1    1    0.215335    0.522603    0.424141    11.00000    0.00846    0.00807 =
         0.01120   -0.00080   -0.00037    0.00347
AFIX  13
H1    2    0.214013    0.521052    0.354532    11.00000   -1.20000
AFIX   0
NA1   5    0.333333    0.666667    0.666667    10.16667    0.01201    0.01201 =
         0.00973    0.00000    0.00000    0.00600
N2    3    0.098473    0.386156    0.455612    11.00000    0.01006    0.00770 =
         0.01935   -0.00018    0.00044    0.00328
H2B   2    0.108985    0.381142    0.516360    11.00000   -1.50000
H2A   2    0.103634    0.315560    0.430885    11.00000   -1.50000
C2    1    0.360147    0.546904    0.454515    11.00000    0.00941    0.00911 =
         0.01008   -0.00052    0.00041    0.00504
AFIX  13
H2    2    0.376057    0.475198    0.422281    11.00000   -1.20000
HKLF 4
REM  sh3335 in R-3
REM R1 =  0.0117 for    733 Fo > 4sig(Fo)  and  0.0117 for all    733 data
REM     50 parameters refined using      3 restraints
END
WGHT      0.0179      1.6340
REM Highest difference peak  0.418,  deepest hole -0.299,  1-sigma level  0.067
Q1    1   0.2851  0.5335  0.4411  11.00000  0.05    0.42
Q2    1   0.2002  0.5740  0.4422  11.00000  0.05    0.37
Q3    1   0.0120  0.3668  0.4414  11.00000  0.05    0.22
Q4    1   0.1578  0.4540  0.4393  11.00000  0.05    0.20
Q5    1   0.4154  0.3805  0.3544  11.00000  0.05    0.15
END
;
_[local]_cod_data_source_file    cu3054sup1.cif
_[local]_cod_data_source_block   II
_[local]_cod_cif_authors_sg_H-M  'R -3'
_cod_database_code               2019572
loop_
_symmetry_equiv_pos_as_xyz
'x, y, z'
'-y, x-y, z'
'-x+y, -x, z'
'x+2/3, y+1/3, z+1/3'
'-y+2/3, x-y+1/3, z+1/3'
'-x+y+2/3, -x+1/3, z+1/3'
'x+1/3, y+2/3, z+2/3'
'-y+1/3, x-y+2/3, z+2/3'
'-x+y+1/3, -x+2/3, z+2/3'
'-x, -y, -z'
'y, -x+y, -z'
'x-y, x, -z'
'-x+2/3, -y+1/3, -z+1/3'
'y+2/3, -x+y+1/3, -z+1/3'
'x-y+2/3, x+1/3, -z+1/3'
'-x+1/3, -y+2/3, -z+2/3'
'y+1/3, -x+y+2/3, -z+2/3'
'x-y+1/3, x+2/3, -z+2/3'
loop_
_atom_site_type_symbol
_atom_site_label
_atom_site_fract_x
_atom_site_fract_y
_atom_site_fract_z
_atom_site_U_iso_or_equiv
_atom_site_adp_type
_atom_site_calc_flag
_atom_site_refinement_flags
_atom_site_occupancy
_atom_site_symmetry_multiplicity
I I1 0.0000 0.0000 0.5000 0.01250(8) Uani d S 1 6
O O1 0.36478(9) 0.52714(9) 0.55261(6) 0.01095(17) Uani d D 1 1
H H1O 0.3686(18) 0.4532(16) 0.5593(11) 0.016 Uiso d D 1 1
C C1 0.21533(12) 0.52260(12) 0.42414(8) 0.0095(2) Uani d . 1 1
H H1 0.2140 0.5211 0.3545 0.011 Uiso calc R 1 1
Na Na1 0.3333 0.6667 0.6667 0.0112(2) Uani d S 1 6
N N2 0.09847(11) 0.38616(11) 0.45561(8) 0.0129(2) Uani d D 1 1
H H2B 0.109(2) 0.381(2) 0.5164(9) 0.019 Uiso d D 1 1
H H2A 0.1036(19) 0.3156(16) 0.4309(12) 0.019 Uiso d D 1 1
C C2 0.36015(12) 0.54690(12) 0.45451(8) 0.0094(2) Uani d . 1 1
H H2 0.3761 0.4752 0.4223 0.011 Uiso calc R 1 1
loop_
_atom_site_aniso_label
_atom_site_aniso_U_11
_atom_site_aniso_U_22
_atom_site_aniso_U_33
_atom_site_aniso_U_12
_atom_site_aniso_U_13
_atom_site_aniso_U_23
I1 0.01396(9) 0.01396(9) 0.00959(10) 0.00698(4) 0.000 0.000
O1 0.0143(4) 0.0109(4) 0.0100(4) 0.0081(3) 0.0001(3) 0.0013(3)
C1 0.0085(5) 0.0081(5) 0.0112(5) 0.0035(4) -0.0004(4) -0.0008(4)
Na1 0.0120(3) 0.0120(3) 0.0097(5) 0.00600(16) 0.000 0.000
N2 0.0101(5) 0.0077(4) 0.0194(5) 0.0033(4) 0.0004(4) -0.0002(4)
C2 0.0094(5) 0.0091(5) 0.0101(5) 0.0050(4) 0.0004(4) -0.0005(4)
loop_
_atom_type_symbol
_atom_type_description
_atom_type_scat_dispersion_real
_atom_type_scat_dispersion_imag
_atom_type_scat_source
C C 0.0033 0.0016 'International Tables Vol C Tables 4.2.6.8 and 6.1.1.4'
H H 0.0000 0.0000 'International Tables Vol C Tables 4.2.6.8 and 6.1.1.4'
N N 0.0061 0.0033 'International Tables Vol C Tables 4.2.6.8 and 6.1.1.4'
O O 0.0106 0.0060 'International Tables Vol C Tables 4.2.6.8 and 6.1.1.4'
Na Na 0.0362 0.0249 'International Tables Vol C Tables 4.2.6.8 and 6.1.1.4'
I I -0.4742 1.8119 'International Tables Vol C Tables 4.2.6.8 and 6.1.1.4'
loop_
_geom_angle_atom_site_label_1
_geom_angle_atom_site_label_2
_geom_angle_atom_site_label_3
_geom_angle_site_symmetry_1
_geom_angle_site_symmetry_3
_geom_angle
_geom_angle_publ_flag
C2 O1 Na1 . . 123.57(7) y
C2 O1 H1O . . 106.4(11) ?
Na1 O1 H1O . . 129.4(11) ?
N2 C1 C2 . 3_565 109.04(9) ?
N2 C1 C2 . . 112.83(9) ?
C2 C1 C2 3_565 . 113.65(11) ?
N2 C1 H1 . . 107.0 ?
C2 C1 H1 3_565 . 107.0 ?
C2 C1 H1 . . 107.0 ?
O1 Na1 O1 15_556 3_565 180.0 y
O1 Na1 O1 15_556 2_665 102.13(3) y
O1 Na1 O1 3_565 2_665 77.88(3) y
O1 Na1 O1 15_556 . 102.13(3) ?
O1 Na1 O1 3_565 . 77.88(3) ?
O1 Na1 O1 2_665 . 77.88(3) ?
O1 Na1 O1 15_556 14_456 77.88(3) ?
O1 Na1 O1 3_565 14_456 102.12(3) ?
O1 Na1 O1 2_665 14_456 180.0 ?
O1 Na1 O1 . 14_456 102.13(3) ?
O1 Na1 O1 15_556 13_566 77.87(3) ?
O1 Na1 O1 3_565 13_566 102.12(3) ?
O1 Na1 O1 2_665 13_566 102.12(3) ?
O1 Na1 O1 . 13_566 180.00(4) ?
O1 Na1 O1 14_456 13_566 77.87(3) ?
C1 N2 H2B . . 106.9(13) ?
C1 N2 H2A . . 111.4(12) ?
H2B N2 H2A . . 106.0(17) ?
O1 C2 C1 . 2_665 111.35(9) ?
O1 C2 C1 . . 111.44(9) ?
C1 C2 C1 2_665 . 110.83(11) ?
O1 C2 H2 . . 107.7 ?
C1 C2 H2 2_665 . 107.7 ?
C1 C2 H2 . . 107.7 ?
loop_
_geom_bond_atom_site_label_1
_geom_bond_atom_site_label_2
_geom_bond_site_symmetry_2
_geom_bond_distance
_geom_bond_publ_flag
O1 C2 . 1.4303(13) ?
O1 Na1 . 2.3813(8) y
O1 H1O . 0.838(14) ?
C1 N2 . 1.4721(15) ?
C1 C2 3_565 1.5309(15) ?
C1 C2 . 1.5359(15) ?
C1 H1 . 1.0000 ?
Na1 O1 15_556 2.3813(9) ?
Na1 O1 3_565 2.3813(8) ?
Na1 O1 2_665 2.3813(9) ?
Na1 O1 14_456 2.3813(9) ?
Na1 O1 13_566 2.3814(8) ?
N2 H2B . 0.885(13) ?
N2 H2A . 0.879(14) ?
C2 C1 2_665 1.5309(15) ?
C2 H2 . 1.0000 ?
loop_
_geom_hbond_atom_site_label_D
_geom_hbond_atom_site_label_H
_geom_hbond_atom_site_label_A
_geom_hbond_site_symmetry_A
_geom_hbond_distance_DH
_geom_hbond_distance_HA
_geom_hbond_distance_DA
_geom_hbond_angle_DHA
_geom_hbond_publ_flag
O1 H1O N2 11_556 0.838(14) 1.930(14) 2.7525(14) 166.7(16) y
loop_
_geom_torsion_atom_site_label_1
_geom_torsion_atom_site_label_2
_geom_torsion_atom_site_label_3
_geom_torsion_atom_site_label_4
_geom_torsion_site_symmetry_1
_geom_torsion_site_symmetry_4
_geom_torsion
C2 O1 Na1 O1 . 15_556 -140.07(6)
C2 O1 Na1 O1 . 3_565 39.93(7)
C2 O1 Na1 O1 . 2_665 -40.07(7)
C2 O1 Na1 O1 . 14_456 139.93(7)
Na1 O1 C2 C1 . 2_665 62.32(11)
Na1 O1 C2 C1 . . -61.98(11)
N2 C1 C2 O1 . . -52.73(13)
C2 C1 C2 O1 3_565 . 72.07(12)
N2 C1 C2 C1 . 2_665 -177.34(8)
C2 C1 C2 C1 3_565 2_665 -52.53(15)
loop_
_refln_index_h
_refln_index_k
_refln_index_l
_refln_observed_status
_refln_F_squared_meas
_refln_F_squared_calc
-1 2 0 o 42487.81 53362.10
0 3 0 o 12305.32 12284.80
-2 4 0 o 1561.05 1702.11
-4 5 0 o 1337.78 1633.92
-1 5 0 o 30889.81 33936.15
-3 6 0 o 3699.09 3727.41
0 6 0 o 23311.39 23813.98
-5 7 0 o 10195.33 10064.69
-2 7 0 o 35296.81 36703.39
-7 8 0 o 6691.15 6466.86
-4 8 0 o 10317.97 9864.28
-1 8 0 o 45553.62 48175.30
-6 9 0 o 2322.61 2069.30
-3 9 0 o 15869.05 15788.30
0 9 0 o 4238.03 4131.84
-8 10 0 o 3772.12 3568.96
-5 10 0 o 2289.06 2176.12
-2 10 0 o 6767.45 6745.16
-10 11 0 o 1581.96 1645.12
-7 11 0 o 3711.44 3439.40
-4 11 0 o 2351.24 2380.89
-1 11 0 o 1873.05 1946.09
-9 12 0 o 7823.47 7715.67
-6 12 0 o 5992.45 5951.12
-3 12 0 o 2136.09 2162.55
0 12 0 o 497.21 548.01
-11 13 0 o 1029.47 1114.84
-8 13 0 o 7917.01 7880.22
-5 13 0 o 434.68 479.40
-2 13 0 o 6306.08 6291.58
-7 14 0 o 1781.89 1857.71
-1 1 1 o 924.70 813.85
-3 2 1 o 15212.57 15378.97
0 2 1 o 7770.35 7325.30
-5 3 1 o 17868.69 16954.18
-2 3 1 o 28246.16 29205.75
1 3 1 o 48407.02 52771.43
-7 4 1 o 698.82 763.23
-4 4 1 o 4157.21 3918.50
-1 4 1 o 7857.02 7184.00
2 4 1 o 15885.20 15782.76
-9 5 1 o 10348.78 10388.15
-6 5 1 o 1736.04 1729.55
-3 5 1 o 2506.82 2512.34
0 5 1 o 2342.00 2189.27
3 5 1 o 2683.76 2573.90
-11 6 1 o 5470.69 5338.43
-8 6 1 o 970.04 981.79
-5 6 1 o 14634.71 13958.98
-2 6 1 o 9652.31 9389.98
1 6 1 o 1952.46 2079.38
4 6 1 o 1430.78 1477.83
-13 7 1 o 1671.06 1596.71
-10 7 1 o 4851.64 4758.46
-7 7 1 o 2256.57 2200.83
-4 7 1 o 11753.17 11316.22
-1 7 1 o 452.15 456.10
2 7 1 o 7258.92 7244.46
5 7 1 o 2255.43 2302.54
-12 8 1 o 5059.31 4867.82
-9 8 1 o 2570.74 2583.03
-6 8 1 o 9099.50 8963.25
-3 8 1 o 2871.17 2754.28
0 8 1 o 6409.43 6407.52
3 8 1 o 1678.01 1663.48
-11 9 1 o 2605.80 2587.63
-8 9 1 o 1981.53 1971.60
-5 9 1 o 8977.04 8805.26
-2 9 1 o 1575.99 1564.48
1 9 1 o 5591.38 5465.60
4 9 1 o 966.57 978.24
-13 10 1 o 865.44 911.42
-10 10 1 o 4430.77 4478.71
-7 10 1 o 7780.48 7668.24
-4 10 1 o 1877.82 1867.27
-1 10 1 o 3552.74 3567.79
2 10 1 o 1791.85 1751.44
-12 11 1 o 801.15 832.56
-9 11 1 o 1159.11 1162.39
-6 11 1 o 2634.33 2623.38
-3 11 1 o 5625.15 5578.42
0 11 1 o 4940.04 4853.75
-11 12 1 o 1467.58 1446.87
-8 12 1 o 119.87 116.22
-5 12 1 o 1556.57 1629.74
-2 12 1 o 1246.99 1232.60
-10 13 1 o 2748.27 2766.13
-7 13 1 o 1146.19 1146.39
-4 13 1 o 675.45 662.06
0 1 2 o 122.90 80.09
-2 2 2 o 28457.60 29367.14
1 2 2 o 23551.51 23676.35
-4 3 2 o 7580.80 7569.63
-1 3 2 o 35675.82 36836.65
2 3 2 o 11730.61 11331.55
-6 4 2 o 19391.38 19860.99
0 4 2 o 5927.47 6050.38
3 4 2 o 16979.52 16701.95
-8 5 2 o 7277.60 7135.30
-5 5 2 o 22428.33 22377.76
-2 5 2 o 48309.61 47686.43
1 5 2 o 22185.47 21427.92
4 5 2 o 18984.03 19464.53
-10 6 2 o 3123.86 3093.20
-7 6 2 o 2484.71 2463.99
-4 6 2 o 38319.08 37514.00
-1 6 2 o 13272.35 12896.48
2 6 2 o 18850.08 18616.08
5 6 2 o 7620.64 7727.85
-12 7 2 o 1828.23 1810.51
-9 7 2 o 269.73 244.97
-6 7 2 o 6993.43 7118.30
-3 7 2 o 9185.62 9021.01
0 7 2 o 4795.63 4647.12
3 7 2 o 18969.04 19343.52
6 7 2 o 3097.53 3104.24
-11 8 2 o 4633.50 4638.84
-8 8 2 o 5340.38 5237.57
-5 8 2 o 1473.53 1507.62
-2 8 2 o 919.30 881.39
1 8 2 o 5067.45 5011.08
4 8 2 o 4225.77 4324.54
-13 9 2 o 4176.67 4083.63
-10 9 2 o 7397.08 7211.19
-7 9 2 o 8895.88 9138.74
-4 9 2 o 11076.74 11040.12
-1 9 2 o 610.26 608.07
2 9 2 o 2051.68 2063.34
-12 10 2 o 3262.82 3323.68
-9 10 2 o 10082.74 10017.14
-6 10 2 o 5948.77 6522.94
-3 10 2 o 6815.19 6603.98
0 10 2 o 4136.47 4022.94
3 10 2 o 3652.20 3695.37
-11 11 2 o 12051.05 11767.10
-8 11 2 o 5109.40 5347.93
-5 11 2 o 7911.67 7900.95
-2 11 2 o 5024.96 4919.94
1 11 2 o 4713.18 4585.25
-10 12 2 o 4465.80 4378.84
-7 12 2 o 6130.81 6262.62
-4 12 2 o 12125.19 11909.39
-1 12 2 o 2733.53 2729.85
-9 13 2 o 2158.06 2188.97
-6 13 2 o 4674.67 4610.72
-3 13 2 o 3992.43 4045.64
1 1 3 o 34114.24 35171.64
-1 2 3 o 1536.65 1484.34
2 2 3 o 12598.10 12705.31
-3 3 3 o 1809.46 1798.55
0 3 3 o 18125.14 17850.49
3 3 3 o 6145.23 5944.42
-5 4 3 o 14547.70 14470.49
-2 4 3 o 148.25 104.47
1 4 3 o 6055.21 5717.90
4 4 3 o 1766.40 1689.78
-7 5 3 o 15972.66 16107.91
-4 5 3 o 217.77 342.95
-1 5 3 o 13515.58 13566.64
2 5 3 o 3796.53 3706.29
5 5 3 o 1186.31 1182.90
-9 6 3 o 4510.08 4480.41
-6 6 3 o 3694.85 3557.65
-3 6 3 o 963.12 1021.86
0 6 3 o 13775.05 13286.96
3 6 3 o 358.27 331.66
6 6 3 o 4251.31 4274.65
-11 7 3 o 4966.27 5046.11
-8 7 3 o 14604.46 14411.96
-5 7 3 o 8956.05 8859.83
-2 7 3 o 6779.85 6412.31
1 7 3 o 686.74 643.34
4 7 3 o 2264.83 2249.88
-13 8 3 o 475.45 534.12
-10 8 3 o 3702.20 3857.68
-7 8 3 o 6493.86 6513.09
-4 8 3 o 9641.85 9347.54
-1 8 3 o 15696.73 15365.99
2 8 3 o 2293.19 2310.69
5 8 3 o 1614.53 1565.86
-12 9 3 o 2593.30 2596.71
-9 9 3 o 138.30 139.76
-6 9 3 o 4580.09 4319.68
-3 9 3 o 6324.63 6226.80
0 9 3 o 5497.55 5536.66
3 9 3 o 3522.55 3531.39
-11 10 3 o 302.93 315.83
-8 10 3 o 2664.65 2616.78
-5 10 3 o 2140.30 2137.94
-2 10 3 o 1465.68 1503.95
1 10 3 o 2679.32 2795.64
-10 11 3 o 495.20 512.93
-7 11 3 o 2248.63 2100.97
-4 11 3 o 78.33 65.10
-1 11 3 o 3286.99 3323.13
-9 12 3 o 3692.12 3637.88
-6 12 3 o 2742.19 2697.94
-3 12 3 o 780.45 800.55
-8 13 3 o 4801.78 4823.77
-5 13 3 o 739.89 767.66
-1 1 4 o 39666.59 40343.16
-3 2 4 o 19621.25 19655.92
0 2 4 o 15894.51 15552.41
-5 3 4 o 17766.07 17756.64
-2 3 4 o 36780.11 38154.20
1 3 4 o 25710.66 26024.37
-7 4 4 o 5585.61 5594.29
-4 4 4 o 16002.33 16001.31
-1 4 4 o 25305.78 25574.34
2 4 4 o 19723.99 20328.51
-9 5 4 o 11971.61 12027.08
-6 5 4 o 5646.32 5649.73
-3 5 4 o 1591.25 1918.76
0 5 4 o 6413.27 6205.96
3 5 4 o 14374.51 14013.40
-11 6 4 o 5745.35 5647.44
-8 6 4 o 12637.41 12722.29
-5 6 4 o 10616.47 10871.30
-2 6 4 o 10698.77 10780.26
1 6 4 o 8169.03 7994.54
4 6 4 o 829.51 773.99
-13 7 4 o 3019.53 2993.88
-10 7 4 o 7758.85 7706.54
-7 7 4 o 11090.34 11215.88
-4 7 4 o 11283.91 11257.30
-1 7 4 o 8856.74 8790.27
2 7 4 o 7164.93 6969.35
5 7 4 o 1826.14 1809.57
-12 8 4 o 3496.86 3480.31
-9 8 4 o 15091.30 15552.99
-6 8 4 o 9385.10 9061.86
-3 8 4 o 9296.68 9197.39
0 8 4 o 13767.85 13765.97
3 8 4 o 1516.23 1505.14
-11 9 4 o 3939.88 3983.53
-8 9 4 o 6131.25 6069.96
-5 9 4 o 9492.73 8758.32
-2 9 4 o 15770.05 15897.15
1 9 4 o 4898.52 4793.86
4 9 4 o 2753.66 2669.60
-13 10 4 o 1509.48 1478.40
-10 10 4 o 6061.16 6154.91
-7 10 4 o 7218.26 6572.59
-4 10 4 o 7245.74 7177.24
-1 10 4 o 4690.22 4663.87
2 10 4 o 3319.68 3325.45
-12 11 4 o 752.68 789.15
-9 11 4 o 4281.26 4352.35
-6 11 4 o 4853.98 4633.05
-3 11 4 o 8066.88 8041.28
0 11 4 o 3542.44 3509.35
-11 12 4 o 281.72 314.68
-8 12 4 o 694.58 677.40
-5 12 4 o 3486.20 3645.43
-2 12 4 o 2411.53 2428.90
-10 13 4 o 3231.91 3239.21
-7 13 4 o 1967.56 1979.34
-4 13 4 o 83.03 82.99
0 1 5 o 8018.13 7927.51
-2 2 5 o 17248.96 17306.79
1 2 5 o 3047.10 3160.72
-4 3 5 o 577.06 612.78
-1 3 5 o 10017.92 9761.96
2 3 5 o 4926.95 4665.86
-6 4 5 o 9226.01 9137.10
-3 4 5 o 14975.17 14673.35
0 4 5 o 980.51 1069.74
3 4 5 o 2466.76 2385.47
-8 5 5 o 6314.91 6255.04
-5 5 5 o 15832.77 15752.08
-2 5 5 o 12696.64 12268.54
1 5 5 o 5692.10 5515.09
4 5 5 o 5997.01 5918.29
-10 6 5 o 2009.65 1976.05
-7 6 5 o 5753.36 5660.22
-4 6 5 o 9815.53 9128.47
-1 6 5 o 14164.41 13829.49
2 6 5 o 5130.72 5000.85
5 6 5 o 3644.15 3662.95
-12 7 5 o 375.34 362.40
-9 7 5 o 392.38 394.27
-6 7 5 o 5158.12 5292.89
-3 7 5 o 9361.35 9361.24
0 7 5 o 4763.48 4668.34
3 7 5 o 7203.12 7213.20
6 7 5 o 2310.01 2414.23
-11 8 5 o 932.88 952.63
-8 8 5 o 1851.11 1789.47
-5 8 5 o 53.78 67.92
-2 8 5 o 2122.89 2052.30
1 8 5 o 3365.77 3329.32
4 8 5 o 6414.66 6420.78
-13 9 5 o 2880.70 2984.62
-10 9 5 o 3737.81 3687.64
-7 9 5 o 1959.83 2090.62
-4 9 5 o 2569.23 2567.24
-1 9 5 o 344.66 347.34
2 9 5 o 739.39 760.69
-12 10 5 o 1542.89 1580.43
-9 10 5 o 2795.16 2860.17
-6 10 5 o 3840.06 4182.37
-3 10 5 o 3066.44 2930.04
0 10 5 o 770.68 745.05
-11 11 5 o 4519.46 4373.83
-8 11 5 o 2599.54 2711.71
-5 11 5 o 1541.19 1556.54
-2 11 5 o 2343.61 2340.48
1 11 5 o 2308.66 2314.81
-10 12 5 o 2229.92 2230.78
-7 12 5 o 3291.91 3397.47
-4 12 5 o 4618.93 4488.46
-1 12 5 o 1486.61 1498.50
-9 13 5 o 2286.22 2353.11
-6 13 5 o 2576.24 2545.43
0 0 6 o 366.38 572.25
1 1 6 o 27894.83 28630.94
-1 2 6 o 2687.26 3126.30
2 2 6 o 31360.07 31315.57
-3 3 6 o 15007.35 15143.03
0 3 6 o 31229.35 31737.68
3 3 6 o 13759.35 13553.96
-5 4 6 o 13100.61 12716.32
-2 4 6 o 18584.70 18132.42
1 4 6 o 16968.75 16454.67
4 4 6 o 5290.80 5319.09
-7 5 6 o 7442.20 7388.74
-4 5 6 o 22288.62 22235.79
-1 5 6 o 11893.00 11652.96
2 5 6 o 8262.47 8312.80
5 5 6 o 8185.70 8386.08
-9 6 6 o 3425.67 3364.09
-6 6 6 o 2900.72 2828.35
-3 6 6 o 18391.24 18139.10
0 6 6 o 10678.97 10604.33
3 6 6 o 9255.36 9363.32
6 6 6 o 4753.46 4695.73
-11 7 6 o 9714.05 9653.30
-8 7 6 o 1896.88 1820.76
-5 7 6 o 18491.74 18145.20
-2 7 6 o 1675.77 1586.70
1 7 6 o 3731.66 3702.23
4 7 6 o 7994.71 8072.29
-13 8 6 o 1923.41 1961.68
-10 8 6 o 5339.17 5358.21
-7 8 6 o 10757.45 11091.28
-4 8 6 o 13059.65 13054.16
-1 8 6 o 2517.02 2362.49
2 8 6 o 7891.99 7943.22
5 8 6 o 429.14 421.16
-12 9 6 o 4461.19 4581.69
-9 9 6 o 1609.84 1622.64
-6 9 6 o 8975.26 9497.59
-3 9 6 o 4769.30 4698.71
0 9 6 o 10032.02 9878.77
3 9 6 o 2490.13 2479.99
-11 10 6 o 3084.09 3141.51
-8 10 6 o 4968.60 5210.20
-5 10 6 o 6151.65 6467.79
-2 10 6 o 2430.69 2405.65
1 10 6 o 5321.34 5310.93
-10 11 6 o 4964.22 4936.54
-7 11 6 o 2541.76 2712.65
-4 11 6 o 2398.59 2358.04
-1 11 6 o 6136.75 6129.31
-9 12 6 o 2510.86 2467.11
-6 12 6 o 3622.24 3597.13
-3 12 6 o 3802.17 3873.71
-8 13 6 o 2586.95 2681.33
-5 13 6 o 7976.35 7743.44
-1 1 7 o 20745.70 19794.75
-3 2 7 o 4052.61 4004.11
0 2 7 o 4634.87 4558.52
-5 3 7 o 3628.59 3759.08
-2 3 7 o 10919.90 10817.64
1 3 7 o 966.39 945.38
-7 4 7 o 4535.24 4575.86
-4 4 7 o 10992.77 11166.60
-1 4 7 o 13355.31 13259.98
2 4 7 o 5747.95 5882.56
-9 5 7 o 2455.30 2470.27
-6 5 7 o 3255.12 3391.28
-3 5 7 o 1416.29 1528.50
0 5 7 o 3612.86 3627.26
3 5 7 o 11047.46 10845.13
-11 6 7 o 1678.73 1686.56
-8 6 7 o 8918.11 9044.09
-5 6 7 o 1507.31 1594.20
-2 6 7 o 2882.29 3009.57
1 6 7 o 5081.34 4995.95
4 6 7 o 240.92 245.03
-10 7 7 o 1760.66 1791.30
-7 7 7 o 6223.62 6498.95
-4 7 7 o 2879.01 2874.83
-1 7 7 o 7020.99 7188.98
2 7 7 o 1419.39 1413.44
5 7 7 o 647.85 637.14
-12 8 7 o 773.01 740.46
-9 8 7 o 8440.11 8806.32
-6 8 7 o 2045.19 1921.17
-3 8 7 o 4240.57 4309.72
0 8 7 o 4271.63 4343.92
3 8 7 o 872.07 876.18
-11 9 7 o 1566.02 1611.16
-8 9 7 o 3557.36 3498.68
-5 9 7 o 2134.06 1943.09
-2 9 7 o 10423.91 10564.91
1 9 7 o 1026.28 991.12
-10 10 7 o 1932.99 2001.67
-7 10 7 o 2008.37 1735.67
-4 10 7 o 4447.77 4448.15
-1 10 7 o 1086.68 1055.07
2 10 7 o 2263.40 2234.61
-9 11 7 o 4173.29 4287.72
-6 11 7 o 3261.24 3091.07
-3 11 7 o 2266.20 2262.59
0 11 7 o 905.16 913.88
-8 12 7 o 1368.73 1388.36
-5 12 7 o 2510.25 2597.31
-2 12 7 o 2148.49 2122.24
0 1 8 o 33072.48 32499.37
-2 2 8 o 18967.47 19325.79
1 2 8 o 11526.72 12048.42
-4 3 8 o 8382.72 8474.48
-1 3 8 o 10140.31 10342.78
2 3 8 o 21349.86 21310.40
-6 4 8 o 12645.12 12252.19
-3 4 8 o 600.06 622.77
0 4 8 o 11757.79 11650.30
3 4 8 o 4024.09 3837.26
-8 5 8 o 10686.15 10900.69
-5 5 8 o 13043.97 13113.11
-2 5 8 o 3692.30 3824.21
1 5 8 o 8341.10 8261.98
4 5 8 o 1809.44 1742.15
-10 6 8 o 6362.50 6445.15
-7 6 8 o 16543.16 16645.12
-4 6 8 o 2487.57 2579.84
-1 6 8 o 19330.42 18952.96
2 6 8 o 2497.91 2486.64
5 6 8 o 2452.22 2469.62
-12 7 8 o 3047.28 3064.28
-9 7 8 o 7061.31 7260.68
-6 7 8 o 11472.77 11587.21
-3 7 8 o 14649.80 14803.63
0 7 8 o 10857.47 10704.93
3 7 8 o 1287.12 1271.08
-11 8 8 o 2684.40 2746.87
-8 8 8 o 5004.91 5126.63
-5 8 8 o 5733.52 5840.45
-2 8 8 o 11924.99 11885.22
1 8 8 o 6383.37 6375.08
4 8 8 o 6944.58 6879.42
-10 9 8 o 3707.44 3709.38
-7 9 8 o 4654.02 4582.14
-4 9 8 o 4127.53 4064.50
-1 9 8 o 5922.90 6035.09
2 9 8 o 2788.12 2827.18
-9 10 8 o 1508.05 1537.34
-6 10 8 o 9849.02 9652.88
-3 10 8 o 4114.50 4173.08
0 10 8 o 2872.40 2940.32
-8 11 8 o 4649.44 4590.73
-5 11 8 o 1219.72 1218.46
-2 11 8 o 3330.58 3337.55
-7 12 8 o 3867.00 3771.97
-4 12 8 o 787.48 776.50
0 0 9 o 7998.68 6665.94
1 1 9 o 4529.32 4806.50
-1 2 9 o 2073.97 2378.20
2 2 9 o 9331.35 8811.80
-3 3 9 o 9782.60 9774.24
0 3 9 o 8352.63 8279.13
3 3 9 o 3969.29 3920.17
-5 4 9 o 2545.28 2404.19
-2 4 9 o 20089.16 19800.87
1 4 9 o 4999.48 4968.11
4 4 9 o 3637.89 3689.75
-7 5 9 o 602.40 549.48
-4 5 9 o 20320.54 19938.13
-1 5 9 o 2283.43 2189.38
2 5 9 o 3698.03 3702.74
5 5 9 o 6783.11 6873.46
-9 6 9 o 1031.72 1005.89
-6 6 9 o 895.54 875.53
-3 6 9 o 14080.38 14143.21
0 6 9 o 1865.91 1840.49
3 6 9 o 11122.38 11291.37
6 6 9 o 790.30 822.05
-11 7 9 o 3263.38 3237.86
-8 7 9 o 206.74 227.22
-5 7 9 o 6011.25 6029.10
-2 7 9 o 87.51 68.39
1 7 9 o 3664.65 3689.33
4 7 9 o 5240.04 5267.82
-10 8 9 o 2641.92 2658.18
-7 8 9 o 3989.10 4061.13
-4 8 9 o 3178.95 3240.04
-1 8 9 o 156.32 158.71
2 8 9 o 4574.72 4615.10
-9 9 9 o 2958.19 2979.99
-6 9 9 o 2528.89 2812.64
-3 9 9 o 1467.70 1391.68
0 9 9 o 4154.43 4025.38
-11 10 9 o 3505.88 3609.01
-8 10 9 o 1747.99 1878.12
-5 10 9 o 2997.26 3186.03
-2 10 9 o 1901.08 1902.78
1 10 9 o 1415.26 1438.17
-10 11 9 o 5020.65 5128.30
-7 11 9 o 401.77 501.33
-4 11 9 o 3956.51 3975.65
-1 11 9 o 1877.59 1880.36
-6 12 9 o 1176.77 1180.65
-1 1 10 o 18939.20 18847.58
-3 2 10 o 7693.93 7599.04
0 2 10 o 9970.21 10097.26
-5 3 10 o 4860.11 4852.39
-2 3 10 o 8998.31 9062.95
1 3 10 o 1542.59 1507.07
-7 4 10 o 9443.44 9548.02
-4 4 10 o 16187.01 16260.32
-1 4 10 o 14041.55 13942.77
2 4 10 o 4048.43 4107.81
-9 5 10 o 2366.07 2389.60
-6 5 10 o 9789.25 9844.23
-3 5 10 o 13830.29 13889.29
0 5 10 o 9157.03 9178.81
3 5 10 o 11430.52 11351.26
-11 6 10 o 2573.30 2540.17
-8 6 10 o 8763.39 8774.37
-5 6 10 o 5101.54 5125.49
-2 6 10 o 7279.00 7277.55
1 6 10 o 8119.34 8059.74
4 6 10 o 5617.20 5615.89
-10 7 10 o 1574.25 1585.31
-7 7 10 o 6602.59 6806.33
-4 7 10 o 6141.88 6181.23
-1 7 10 o 10433.62 10503.11
2 7 10 o 3303.43 3210.93
-9 8 10 o 4749.57 4781.70
-6 8 10 o 2861.47 2871.46
-3 8 10 o 5480.67 5554.89
0 8 10 o 3005.43 2999.10
3 8 10 o 4976.60 5067.08
-11 9 10 o 2346.20 2416.61
-8 9 10 o 4207.37 4268.34
-5 9 10 o 1927.67 1937.05
-2 9 10 o 6421.77 6365.61
1 9 10 o 1663.08 1665.40
-10 10 10 o 2500.21 2459.89
-7 10 10 o 1489.66 1478.35
-4 10 10 o 4705.20 4729.33
-1 10 10 o 1475.83 1423.29
-9 11 10 o 5999.43 6086.15
-6 11 10 o 3783.23 3766.65
-3 11 10 o 1816.52 1782.09
0 1 11 o 11572.03 10810.38
-2 2 11 o 4506.98 4375.45
1 2 11 o 7872.87 8086.78
-4 3 11 o 6935.53 7106.76
-1 3 11 o 2679.61 2704.72
2 3 11 o 16689.82 17244.99
-6 4 11 o 3737.88 3751.28
-3 4 11 o 899.33 869.13
0 4 11 o 9943.01 10199.52
3 4 11 o 2663.35 2628.72
-8 5 11 o 3215.84 3244.90
-5 5 11 o 1648.29 1662.76
-2 5 11 o 91.98 26.04
1 5 11 o 3682.76 3757.33
4 5 11 o 29.05 15.46
-10 6 11 o 4125.82 4112.63
-7 6 11 o 6006.84 6174.20
-4 6 11 o 32.36 18.85
-1 6 11 o 4333.37 4442.12
2 6 11 o 276.38 257.82
5 6 11 o 372.54 382.44
-9 7 11 o 5442.19 5533.84
-6 7 11 o 5004.83 5028.14
-3 7 11 o 4180.50 4285.38
0 7 11 o 3789.02 3799.33
3 7 11 o 281.36 251.46
-8 8 11 o 2284.37 2471.95
-5 8 11 o 8395.22 8480.23
-2 8 11 o 5971.20 6175.30
1 8 11 o 2930.43 2836.27
-10 9 11 o 820.71 846.31
-7 9 11 o 3644.02 3627.22
-4 9 11 o 2102.47 2025.35
-1 9 11 o 4900.17 4953.17
-9 10 11 o 322.60 313.76
-6 10 11 o 7266.98 7044.33
-3 10 11 o 1227.94 1265.00
-5 11 11 o 635.79 624.28
0 0 12 o 990.04 1121.07
1 1 12 o 6267.56 6438.81
-1 2 12 o 11980.77 12128.57
2 2 12 o 5973.11 5970.96
-3 3 12 o 11247.06 11276.07
0 3 12 o 5658.64 5673.71
3 3 12 o 5978.09 5804.64
-5 4 12 o 3781.68 3831.30
-2 4 12 o 16633.03 16813.61
1 4 12 o 6109.49 6076.31
4 4 12 o 6221.84 6227.46
-7 5 12 o 3066.92 2953.61
-4 5 12 o 12714.17 12840.09
-1 5 12 o 3997.72 4003.18
2 5 12 o 5732.25 5639.49
5 5 12 o 4866.47 4904.95
-9 6 12 o 3636.96 3595.30
-6 6 12 o 5384.22 5407.28
-3 6 12 o 9594.50 9593.76
0 6 12 o 3939.32 3897.85
3 6 12 o 8096.19 8220.64
-8 7 12 o 1167.76 1155.30
-5 7 12 o 3096.26 3125.02
-2 7 12 o 3987.86 4005.93
1 7 12 o 7060.92 7040.65
-10 8 12 o 3683.56 3762.72
-7 8 12 o 4244.61 4259.88
-4 8 12 o 2752.04 2778.96
-1 8 12 o 977.91 969.07
2 8 12 o 2682.24 2741.28
-9 9 12 o 7149.84 7267.01
-6 9 12 o 2939.42 2982.06
-3 9 12 o 4151.57 4066.87
0 9 12 o 2942.83 2992.59
-8 10 12 o 2692.97 2729.33
-5 10 12 o 4150.57 4183.94
-2 10 12 o 4641.35 4693.81
-1 1 13 o 4988.14 5470.82
-3 2 13 o 2929.17 2858.58
0 2 13 o 4192.78 4290.67
-5 3 13 o 886.03 826.41
-2 3 13 o 2429.81 2480.36
1 3 13 o 220.48 173.57
-7 4 13 o 3762.26 3770.13
-4 4 13 o 5616.09 5663.52
-1 4 13 o 3627.96 3577.69
2 4 13 o 149.11 131.34
-9 5 13 o 1085.78 1093.50
-6 5 13 o 5437.51 5554.68
-3 5 13 o 11439.80 11599.07
0 5 13 o 3499.05 3510.31
3 5 13 o 2571.67 2625.67
-8 6 13 o 2932.34 2884.31
-5 6 13 o 4072.00 4007.73
-2 6 13 o 4266.52 4271.13
1 6 13 o 2956.10 2970.81
-7 7 13 o 2311.72 2319.92
-4 7 13 o 3307.99 3356.90
-1 7 13 o 4390.49 4407.97
2 7 13 o 2416.20 2410.85
-9 8 13 o 788.75 771.08
-6 8 13 o 997.64 1015.82
-3 8 13 o 2357.80 2374.13
0 8 13 o 1059.53 1055.58
-8 9 13 o 1212.20 1256.92
-5 9 13 o 289.18 300.42
-2 9 13 o 1225.36 1167.67
0 1 14 o 5208.43 4946.73
-2 2 14 o 4439.17 4358.64
1 2 14 o 8760.94 8693.94
-4 3 14 o 11025.80 11147.21
-1 3 14 o 5792.07 5762.34
2 3 14 o 10597.79 10963.74
-6 4 14 o 3031.61 3039.46
-3 4 14 o 2638.31 2690.95
0 4 14 o 11159.16 11499.37
3 4 14 o 6141.15 6091.40
-8 5 14 o 2113.79 2095.42
-5 5 14 o 2599.62 2625.70
-2 5 14 o 3149.93 3097.33
1 5 14 o 4242.85 4262.65
4 5 14 o 1826.82 1808.40
-7 6 14 o 2355.88 2361.73
-4 6 14 o 3099.56 3084.55
-1 6 14 o 1947.95 1975.18
2 6 14 o 2907.07 2882.10
-6 7 14 o 3947.84 3995.21
-3 7 14 o 3096.72 3102.76
0 7 14 o 2471.38 2430.99
-5 8 14 o 10215.24 10350.33
-2 8 14 o 3267.95 3194.96
-4 9 14 o 2783.90 2792.94
0 0 15 o 4135.00 3699.75
1 1 15 o 2352.60 2332.60
-1 2 15 o 6002.42 5912.92
2 2 15 o 2684.00 2766.51
-3 3 15 o 2537.31 2563.83
0 3 15 o 1725.22 1724.83
3 3 15 o 4396.45 4361.99
-5 4 15 o 1970.03 1930.71
-2 4 15 o 1899.31 1887.34
1 4 15 o 4519.53 4608.14
4 4 15 o 2301.43 2290.13
-7 5 15 o 2341.77 2292.50
-4 5 15 o 744.77 758.54
-1 5 15 o 1994.61 2005.42
2 5 15 o 2715.49 2704.03
-6 6 15 o 3685.35 3666.36
-3 6 15 o 859.40 834.85
0 6 15 o 2358.55 2327.46
-5 7 15 o 376.97 385.71
-2 7 15 o 3861.14 3946.23
-4 8 15 o 1029.14 1022.17
-1 1 16 o 5173.27 5317.05
-3 2 16 o 5150.55 5133.96
0 2 16 o 6454.70 6447.04
-5 3 16 o 2880.61 2821.94
-2 3 16 o 3217.96 3121.97
1 3 16 o 3495.42 3393.57
-4 4 16 o 3060.93 2901.49
-1 4 16 o 2559.65 2465.04
2 4 16 o 1433.94 1405.72
-6 5 16 o 5090.13 5092.23
-3 5 16 o 6759.30 6657.07
0 5 16 o 4267.62 4199.04
-5 6 16 o 4660.42 4585.31
-2 6 16 o 4312.98 4252.21
0 1 17 o 1354.44 1375.83
-2 2 17 o 1826.59 1830.56
1 2 17 o 1300.42 1278.12
-4 3 17 o 3332.04 3315.62
-1 3 17 o 3284.57 3212.36
2 3 17 o 131.71 100.69
-3 4 17 o 6899.91 6821.77
0 4 17 o 1912.75 1878.38
-2 5 17 o 4782.53 4790.55
0 0 18 o 7410.38 6943.85
1 1 18 o 2923.11 2847.85
-1 2 18 o 4549.55 4568.52

_cod_database_fobs_code 2019572
