data_2205051_molecule_0
loop_
_publ_author_name
'Li, Cui-Jin'
'Li, Wei'
'Tong, Ming-Liang'
'Ng, Seik Weng'
_publ_section_title
;
 A <i>C</i>-centered monoclinic modification of
 bis(di-2-pyridylmethanediol-\k^3^<i>N,O,N</i>')copper(II) diacetate
 tetrahydrate
;
_journal_issue                   2
_journal_name_full               'Acta Crystallographica Section E'
_journal_page_first              m232
_journal_page_last               m234
_journal_volume                  61
_journal_year                    2005
_cell_length_a                   23.557(2)
_cell_length_b                   8.5744(6)
_cell_length_c                   15.8480(10)
_cell_angle_alpha                90.00
_cell_angle_beta                 91.9830(10)
_cell_angle_gamma                90.00
_cell_measurement_temperature    293(2)
_diffrn_ambient_temperature      293(2)
_diffrn_radiation_monochromator  'Graphite Monochromator'
_diffrn_radiation_source         'rotating-anode generator'
_diffrn_radiation_type           MoKa
_diffrn_radiation_wavelength     0.71073
_diffrn_reflns_theta_full        27.5
_diffrn_reflns_theta_max         27.5
_diffrn_reflns_limit_h_max       29
_diffrn_reflns_limit_h_min       -30
_diffrn_reflns_limit_k_max       7
_diffrn_reflns_limit_k_min       -10
_diffrn_reflns_limit_l_max       20
_diffrn_reflns_limit_l_min       -19
_cod_src_refine_ls_wR_factor_ref 0.119
_cod_src_refine_ls_R_factor_gt   0.037
_cod_src_refine_ls_R_factor_all  0.043
_cod_src_chemical_formula_moiety 'C22 H20 Cu N4 O4, 2C2 H3 O2 -, 4H2 O'
_cod_src_chemical_formula_sum    'C26 H34 Cu N4 O12'
_cod_src_refine_ls_wR_factor_gt  0.114
_cod_src_chemical_formula_iupac  '[Cu (C11 H10 N2 O2)2] (C2 H3 O2)2, 4H2 O'
_audit_creation_method
'Id: cif_molecule 2131 2013-01-23 09:39:08Z andrius'
_chemical_formula_sum            'C22 H20 Cu N4 O4'
_cod_data_source_file            2205051.cif
_cod_data_source_block           2205051
_symmetry_space_group_name_H-M   'P 1'
loop_ _symmetry_equiv_pos_as_xyz 'x, y, z'
loop_
_atom_site_label
_atom_site_type_symbol
_atom_site_fract_x
_atom_site_fract_y
_atom_site_fract_z
_atom_site_U_iso_or_equiv
_atom_site_occupancy
C1 C 0.140500 0.660200 0.409700 0.0510(5) 1
C2 C 0.108000 0.593500 0.345600 0.0627(6) 1
C3 C 0.134300 0.520900 0.280600 0.0617(6) 1
C4 C 0.192900 0.514000 0.281000 0.0496(5) 1
C5 C 0.223100 0.582900 0.346700 0.0387(4) 1
C6 C 0.287500 0.582400 0.356100 0.0379(4) 1
C7 C 0.304000 0.481600 0.433100 0.0369(4) 1
C8 C 0.330700 0.338500 0.429500 0.0515(5) 1
C9 C 0.343900 0.261000 0.504100 0.0656(7) 1
H1 H 0.122600 0.709600 0.453700 0.061 1
H2 H 0.068600 0.597600 0.346400 0.075 1
H3 H 0.112800 0.476600 0.236500 0.074 1
H4 H 0.211500 0.463900 0.237800 0.060 1
H8 H 0.339600 0.295000 0.377900 0.062 1
H9 H 0.362500 0.165300 0.503300 0.079 1
N1 N 0.197500 0.655500 0.410300 0.0399(4) 1
N2 N 0.290000 0.544200 0.507200 0.0378(3) 1
O1 O 0.303100 0.738500 0.374000 0.0401(3) 1
O2 O 0.310400 0.526500 0.283100 0.0509(4) 1
C10 C 0.329500 0.326200 0.579200 0.0658(7) 1
C11 C 0.302500 0.467700 0.579000 0.0504(5) 1
Cu1 Cu 0.250000 0.750000 0.500000 0.03500(10) 1
H10 H 0.337900 0.275000 0.629800 0.079 1
H11 H 0.292700 0.511700 0.630100 0.061 1
H1o H 0.323000 0.801800 0.350100 0.048 1
H2o H 0.345100 0.526100 0.288400 0.061 1
C1_7_555 C 0.359500 0.839800 0.590300 0.0510(5) 1
C2_7_555 C 0.392000 0.906500 0.654400 0.0627(6) 1
C3_7_555 C 0.365700 0.979100 0.719400 0.0617(6) 1
C4_7_555 C 0.307100 0.986000 0.719000 0.0496(5) 1
C5_7_555 C 0.276900 0.917100 0.653300 0.0387(4) 1
C6_7_555 C 0.212500 0.917600 0.643900 0.0379(4) 1
C7_7_565 C 0.196000 1.018400 0.566900 0.0369(4) 1
C8_7_565 C 0.169300 1.161500 0.570500 0.0515(5) 1
C9_7_565 C 0.156100 1.239000 0.495900 0.0656(7) 1
H1_7_555 H 0.377400 0.790400 0.546300 0.061 1
H2_7_555 H 0.431400 0.902400 0.653600 0.075 1
H3_7_565 H 0.387200 1.023400 0.763500 0.074 1
H4_7_565 H 0.288500 1.036100 0.762200 0.060 1
H8_7_565 H 0.160400 1.205000 0.622100 0.062 1
H9_7_565 H 0.137500 1.334700 0.496700 0.079 1
N1_7_555 N 0.302500 0.844500 0.589700 0.0399(4) 1
N2_7_555 N 0.210000 0.955800 0.492800 0.0378(3) 1
O1_7_555 O 0.196900 0.761500 0.626000 0.0401(3) 1
O2_7_555 O 0.189600 0.973500 0.716900 0.0509(4) 1
C10_7_565 C 0.170500 1.173800 0.420800 0.0658(7) 1
C11_7_565 C 0.197500 1.032300 0.421000 0.0504(5) 1
H10_7_565 H 0.162100 1.225000 0.370200 0.079 1
H11_7_555 H 0.207300 0.988300 0.369900 0.061 1
H1o_7_555 H 0.177000 0.698200 0.649900 0.048 1
H2o_7_555 H 0.154900 0.973900 0.711600 0.061 1
loop_
_cod_molecule_atom_label
_cod_molecule_atom_orig_label
_cod_molecule_atom_symmetry
_cod_molecule_atom_symop_id
_cod_molecule_atom_symop_xyz
_cod_molecule_atom_transl_id
_cod_molecule_atom_transl_x
_cod_molecule_atom_transl_y
_cod_molecule_atom_transl_z
_cod_molecule_atom_mult
_cod_molecule_atom_mult_ratio
C1 C1 1_555 1 'x, y, z' 555 0 0 0 8 1
C2 C2 1_555 1 'x, y, z' 555 0 0 0 8 1
C3 C3 1_555 1 'x, y, z' 555 0 0 0 8 1
C4 C4 1_555 1 'x, y, z' 555 0 0 0 8 1
C5 C5 1_555 1 'x, y, z' 555 0 0 0 8 1
C6 C6 1_555 1 'x, y, z' 555 0 0 0 8 1
C7 C7 1_555 1 'x, y, z' 555 0 0 0 8 1
C8 C8 1_555 1 'x, y, z' 555 0 0 0 8 1
C9 C9 1_555 1 'x, y, z' 555 0 0 0 8 1
H1 H1 1_555 1 'x, y, z' 555 0 0 0 8 1
H2 H2 1_555 1 'x, y, z' 555 0 0 0 8 1
H3 H3 1_555 1 'x, y, z' 555 0 0 0 8 1
H4 H4 1_555 1 'x, y, z' 555 0 0 0 8 1
H8 H8 1_555 1 'x, y, z' 555 0 0 0 8 1
H9 H9 1_555 1 'x, y, z' 555 0 0 0 8 1
N1 N1 1_555 1 'x, y, z' 555 0 0 0 8 1
N2 N2 1_555 1 'x, y, z' 555 0 0 0 8 1
O1 O1 1_555 1 'x, y, z' 555 0 0 0 8 1
O2 O2 1_555 1 'x, y, z' 555 0 0 0 8 1
C10 C10 1_555 1 'x, y, z' 555 0 0 0 8 1
C11 C11 1_555 1 'x, y, z' 555 0 0 0 8 1
Cu1 Cu1 1_555 1 'x, y, z' 555 0 0 0 4 2
H10 H10 1_555 1 'x, y, z' 555 0 0 0 8 1
H11 H11 1_555 1 'x, y, z' 555 0 0 0 8 1
H1o H1o 1_555 1 'x, y, z' 555 0 0 0 8 1
H2o H2o 1_555 1 'x, y, z' 555 0 0 0 8 1
C1_7_555 C1 7_555 7 '-x+1/2, -y+1/2, -z' 555 0 0 0 8 1
C2_7_555 C2 7_555 7 '-x+1/2, -y+1/2, -z' 555 0 0 0 8 1
C3_7_555 C3 7_555 7 '-x+1/2, -y+1/2, -z' 555 0 0 0 8 1
C4_7_555 C4 7_555 7 '-x+1/2, -y+1/2, -z' 555 0 0 0 8 1
C5_7_555 C5 7_555 7 '-x+1/2, -y+1/2, -z' 555 0 0 0 8 1
C6_7_555 C6 7_555 7 '-x+1/2, -y+1/2, -z' 555 0 0 0 8 1
C7_7_565 C7 7_565 7 '-x+1/2, -y+1/2, -z' 565 0 1 0 8 1
C8_7_565 C8 7_565 7 '-x+1/2, -y+1/2, -z' 565 0 1 0 8 1
C9_7_565 C9 7_565 7 '-x+1/2, -y+1/2, -z' 565 0 1 0 8 1
H1_7_555 H1 7_555 7 '-x+1/2, -y+1/2, -z' 555 0 0 0 8 1
H2_7_555 H2 7_555 7 '-x+1/2, -y+1/2, -z' 555 0 0 0 8 1
H3_7_565 H3 7_565 7 '-x+1/2, -y+1/2, -z' 565 0 1 0 8 1
H4_7_565 H4 7_565 7 '-x+1/2, -y+1/2, -z' 565 0 1 0 8 1
H8_7_565 H8 7_565 7 '-x+1/2, -y+1/2, -z' 565 0 1 0 8 1
H9_7_565 H9 7_565 7 '-x+1/2, -y+1/2, -z' 565 0 1 0 8 1
N1_7_555 N1 7_555 7 '-x+1/2, -y+1/2, -z' 555 0 0 0 8 1
N2_7_555 N2 7_555 7 '-x+1/2, -y+1/2, -z' 555 0 0 0 8 1
O1_7_555 O1 7_555 7 '-x+1/2, -y+1/2, -z' 555 0 0 0 8 1
O2_7_555 O2 7_555 7 '-x+1/2, -y+1/2, -z' 555 0 0 0 8 1
C10_7_565 C10 7_565 7 '-x+1/2, -y+1/2, -z' 565 0 1 0 8 1
C11_7_565 C11 7_565 7 '-x+1/2, -y+1/2, -z' 565 0 1 0 8 1
H10_7_565 H10 7_565 7 '-x+1/2, -y+1/2, -z' 565 0 1 0 8 1
H11_7_555 H11 7_555 7 '-x+1/2, -y+1/2, -z' 555 0 0 0 8 1
H1o_7_555 H1o 7_555 7 '-x+1/2, -y+1/2, -z' 555 0 0 0 8 1
H2o_7_555 H2o 7_555 7 '-x+1/2, -y+1/2, -z' 555 0 0 0 8 1
loop_
_cod_molecule_transform_label
_cod_molecule_transform_symop
C1 x,y,z
C2 x,y,z
C3 x,y,z
C4 x,y,z
C5 x,y,z
C6 x,y,z
C7 x,y,z
C8 x,y,z
C9 x,y,z
H1 x,y,z
H2 x,y,z
H3 x,y,z
H4 x,y,z
H8 x,y,z
H9 x,y,z
N1 x,y,z
N2 x,y,z
O1 x,y,z
O2 x,y,z
C10 x,y,z
C11 x,y,z
Cu1 x,y,z
Cu1 -x+0.5,-y+0.5,-z
H10 x,y,z
H11 x,y,z
H1o x,y,z
H2o x,y,z
C1_7_555 -x+0.5,-y+0.5,-z
C2_7_555 -x+0.5,-y+0.5,-z
C3_7_555 -x+0.5,-y+0.5,-z
C4_7_555 -x+0.5,-y+0.5,-z
C5_7_555 -x+0.5,-y+0.5,-z
C6_7_555 -x+0.5,-y+0.5,-z
C7_7_565 -x+0.5,-y+1.5,-z
C8_7_565 -x+0.5,-y+1.5,-z
C9_7_565 -x+0.5,-y+1.5,-z
H1_7_555 -x+0.5,-y+0.5,-z
H2_7_555 -x+0.5,-y+0.5,-z
H3_7_565 -x+0.5,-y+1.5,-z
H4_7_565 -x+0.5,-y+1.5,-z
H8_7_565 -x+0.5,-y+1.5,-z
H9_7_565 -x+0.5,-y+1.5,-z
N1_7_555 -x+0.5,-y+0.5,-z
N2_7_555 -x+0.5,-y+0.5,-z
O1_7_555 -x+0.5,-y+0.5,-z
O2_7_555 -x+0.5,-y+0.5,-z
C10_7_565 -x+0.5,-y+1.5,-z
C11_7_565 -x+0.5,-y+1.5,-z
H10_7_565 -x+0.5,-y+1.5,-z
H11_7_555 -x+0.5,-y+0.5,-z
H1o_7_555 -x+0.5,-y+0.5,-z
H2o_7_555 -x+0.5,-y+0.5,-z
data_2205051_molecule_1
loop_
_publ_author_name
'Li, Cui-Jin'
'Li, Wei'
'Tong, Ming-Liang'
'Ng, Seik Weng'
_publ_section_title
;
 A <i>C</i>-centered monoclinic modification of
 bis(di-2-pyridylmethanediol-\k^3^<i>N,O,N</i>')copper(II) diacetate
 tetrahydrate
;
_journal_issue                   2
_journal_name_full               'Acta Crystallographica Section E'
_journal_page_first              m232
_journal_page_last               m234
_journal_volume                  61
_journal_year                    2005
_cell_length_a                   23.557(2)
_cell_length_b                   8.5744(6)
_cell_length_c                   15.8480(10)
_cell_angle_alpha                90.00
_cell_angle_beta                 91.9830(10)
_cell_angle_gamma                90.00
_cell_measurement_temperature    293(2)
_diffrn_ambient_temperature      293(2)
_diffrn_radiation_monochromator  'Graphite Monochromator'
_diffrn_radiation_source         'rotating-anode generator'
_diffrn_radiation_type           MoKa
_diffrn_radiation_wavelength     0.71073
_diffrn_reflns_theta_full        27.5
_diffrn_reflns_theta_max         27.5
_diffrn_reflns_limit_h_max       29
_diffrn_reflns_limit_h_min       -30
_diffrn_reflns_limit_k_max       7
_diffrn_reflns_limit_k_min       -10
_diffrn_reflns_limit_l_max       20
_diffrn_reflns_limit_l_min       -19
_cod_src_refine_ls_wR_factor_ref 0.119
_cod_src_refine_ls_R_factor_gt   0.037
_cod_src_refine_ls_R_factor_all  0.043
_cod_src_chemical_formula_moiety 'C22 H20 Cu N4 O4, 2C2 H3 O2 -, 4H2 O'
_cod_src_chemical_formula_sum    'C26 H34 Cu N4 O12'
_cod_src_refine_ls_wR_factor_gt  0.114
_cod_src_chemical_formula_iupac  '[Cu (C11 H10 N2 O2)2] (C2 H3 O2)2, 4H2 O'
_audit_creation_method
'Id: cif_molecule 2131 2013-01-23 09:39:08Z andrius'
_chemical_formula_sum            'C2 H3 O2'
_cod_data_source_file            2205051.cif
_cod_data_source_block           2205051
_symmetry_space_group_name_H-M   'P 1'
loop_ _symmetry_equiv_pos_as_xyz 'x, y, z'
loop_
_atom_site_label
_atom_site_type_symbol
_atom_site_fract_x
_atom_site_fract_y
_atom_site_fract_z
_atom_site_U_iso_or_equiv
_atom_site_occupancy
O3 O 0.411700 0.754800 0.388600 0.0714(6) 1
O4 O 0.420800 0.535100 0.318300 0.0731(5) 1
C12 C 0.440800 0.645600 0.360100 0.0647(6) 1
C13 C 0.504000 0.647800 0.379700 0.122(2) 1
H13a H 0.520400 0.550800 0.362500 0.183 1
H13b H 0.510800 0.661900 0.439300 0.183 1
H13c H 0.521100 0.732100 0.349700 0.183 1
loop_
_cod_molecule_atom_label
_cod_molecule_atom_orig_label
_cod_molecule_atom_symmetry
_cod_molecule_atom_symop_id
_cod_molecule_atom_symop_xyz
_cod_molecule_atom_transl_id
_cod_molecule_atom_transl_x
_cod_molecule_atom_transl_y
_cod_molecule_atom_transl_z
_cod_molecule_atom_mult
_cod_molecule_atom_mult_ratio
O3 O3 1_555 1 'x, y, z' 555 0 0 0 8 1
O4 O4 1_555 1 'x, y, z' 555 0 0 0 8 1
C12 C12 1_555 1 'x, y, z' 555 0 0 0 8 1
C13 C13 1_555 1 'x, y, z' 555 0 0 0 8 1
H13a H13a 1_555 1 'x, y, z' 555 0 0 0 8 1
H13b H13b 1_555 1 'x, y, z' 555 0 0 0 8 1
H13c H13c 1_555 1 'x, y, z' 555 0 0 0 8 1
loop_
_cod_molecule_transform_label
_cod_molecule_transform_symop
O3 x,y,z
O4 x,y,z
C12 x,y,z
C13 x,y,z
H13a x,y,z
H13b x,y,z
H13c x,y,z
data_2205051_molecule_2
loop_
_publ_author_name
'Li, Cui-Jin'
'Li, Wei'
'Tong, Ming-Liang'
'Ng, Seik Weng'
_publ_section_title
;
 A <i>C</i>-centered monoclinic modification of
 bis(di-2-pyridylmethanediol-\k^3^<i>N,O,N</i>')copper(II) diacetate
 tetrahydrate
;
_journal_issue                   2
_journal_name_full               'Acta Crystallographica Section E'
_journal_page_first              m232
_journal_page_last               m234
_journal_volume                  61
_journal_year                    2005
_cell_length_a                   23.557(2)
_cell_length_b                   8.5744(6)
_cell_length_c                   15.8480(10)
_cell_angle_alpha                90.00
_cell_angle_beta                 91.9830(10)
_cell_angle_gamma                90.00
_cell_measurement_temperature    293(2)
_diffrn_ambient_temperature      293(2)
_diffrn_radiation_monochromator  'Graphite Monochromator'
_diffrn_radiation_source         'rotating-anode generator'
_diffrn_radiation_type           MoKa
_diffrn_radiation_wavelength     0.71073
_diffrn_reflns_theta_full        27.5
_diffrn_reflns_theta_max         27.5
_diffrn_reflns_limit_h_max       29
_diffrn_reflns_limit_h_min       -30
_diffrn_reflns_limit_k_max       7
_diffrn_reflns_limit_k_min       -10
_diffrn_reflns_limit_l_max       20
_diffrn_reflns_limit_l_min       -19
_cod_src_refine_ls_wR_factor_ref 0.119
_cod_src_refine_ls_R_factor_gt   0.037
_cod_src_refine_ls_R_factor_all  0.043
_cod_src_chemical_formula_moiety 'C22 H20 Cu N4 O4, 2C2 H3 O2 -, 4H2 O'
_cod_src_chemical_formula_sum    'C26 H34 Cu N4 O12'
_cod_src_refine_ls_wR_factor_gt  0.114
_cod_src_chemical_formula_iupac  '[Cu (C11 H10 N2 O2)2] (C2 H3 O2)2, 4H2 O'
_audit_creation_method
'Id: cif_molecule 2131 2013-01-23 09:39:08Z andrius'
_chemical_formula_sum            'H2 O'
_cod_data_source_file            2205051.cif
_cod_data_source_block           2205051
_symmetry_space_group_name_H-M   'P 1'
loop_ _symmetry_equiv_pos_as_xyz 'x, y, z'
loop_
_atom_site_label
_atom_site_type_symbol
_atom_site_fract_x
_atom_site_fract_y
_atom_site_fract_z
_atom_site_U_iso_or_equiv
_atom_site_occupancy
O1w O 0.453300 0.033300 0.448500 0.0828(6) 1
H1w2 H 0.446000 0.059200 0.496400 0.099 1
H1w1_1_545 H 0.438700 -0.049700 0.435300 0.099 1
loop_
_cod_molecule_atom_label
_cod_molecule_atom_orig_label
_cod_molecule_atom_symmetry
_cod_molecule_atom_symop_id
_cod_molecule_atom_symop_xyz
_cod_molecule_atom_transl_id
_cod_molecule_atom_transl_x
_cod_molecule_atom_transl_y
_cod_molecule_atom_transl_z
_cod_molecule_atom_mult
_cod_molecule_atom_mult_ratio
O1w O1w 1_555 1 'x, y, z' 555 0 0 0 8 1
H1w2 H1w2 1_555 1 'x, y, z' 555 0 0 0 8 1
H1w1_1_545 H1w1 1_545 1 'x, y, z' 545 0 -1 0 8 1
loop_
_cod_molecule_transform_label
_cod_molecule_transform_symop
O1w x,y,z
H1w2 x,y,z
H1w1_1_545 x,y-1,z
data_2205051_molecule_3
loop_
_publ_author_name
'Li, Cui-Jin'
'Li, Wei'
'Tong, Ming-Liang'
'Ng, Seik Weng'
_publ_section_title
;
 A <i>C</i>-centered monoclinic modification of
 bis(di-2-pyridylmethanediol-\k^3^<i>N,O,N</i>')copper(II) diacetate
 tetrahydrate
;
_journal_issue                   2
_journal_name_full               'Acta Crystallographica Section E'
_journal_page_first              m232
_journal_page_last               m234
_journal_volume                  61
_journal_year                    2005
_cell_length_a                   23.557(2)
_cell_length_b                   8.5744(6)
_cell_length_c                   15.8480(10)
_cell_angle_alpha                90.00
_cell_angle_beta                 91.9830(10)
_cell_angle_gamma                90.00
_cell_measurement_temperature    293(2)
_diffrn_ambient_temperature      293(2)
_diffrn_radiation_monochromator  'Graphite Monochromator'
_diffrn_radiation_source         'rotating-anode generator'
_diffrn_radiation_type           MoKa
_diffrn_radiation_wavelength     0.71073
_diffrn_reflns_theta_full        27.5
_diffrn_reflns_theta_max         27.5
_diffrn_reflns_limit_h_max       29
_diffrn_reflns_limit_h_min       -30
_diffrn_reflns_limit_k_max       7
_diffrn_reflns_limit_k_min       -10
_diffrn_reflns_limit_l_max       20
_diffrn_reflns_limit_l_min       -19
_cod_src_refine_ls_wR_factor_ref 0.119
_cod_src_refine_ls_R_factor_gt   0.037
_cod_src_refine_ls_R_factor_all  0.043
_cod_src_chemical_formula_moiety 'C22 H20 Cu N4 O4, 2C2 H3 O2 -, 4H2 O'
_cod_src_chemical_formula_sum    'C26 H34 Cu N4 O12'
_cod_src_refine_ls_wR_factor_gt  0.114
_cod_src_chemical_formula_iupac  '[Cu (C11 H10 N2 O2)2] (C2 H3 O2)2, 4H2 O'
_audit_creation_method
'Id: cif_molecule 2131 2013-01-23 09:39:08Z andrius'
_chemical_formula_sum            'H2 O'
_cod_data_source_file            2205051.cif
_cod_data_source_block           2205051
_symmetry_space_group_name_H-M   'P 1'
loop_ _symmetry_equiv_pos_as_xyz 'x, y, z'
loop_
_atom_site_label
_atom_site_type_symbol
_atom_site_fract_x
_atom_site_fract_y
_atom_site_fract_z
_atom_site_U_iso_or_equiv
_atom_site_occupancy
O2w O 0.469600 0.238600 0.321000 0.0912(8) 1
H2w1 H 0.448000 0.309700 0.305500 0.109 1
H2w2 H 0.496400 0.280500 0.346600 0.109 1
loop_
_cod_molecule_atom_label
_cod_molecule_atom_orig_label
_cod_molecule_atom_symmetry
_cod_molecule_atom_symop_id
_cod_molecule_atom_symop_xyz
_cod_molecule_atom_transl_id
_cod_molecule_atom_transl_x
_cod_molecule_atom_transl_y
_cod_molecule_atom_transl_z
_cod_molecule_atom_mult
_cod_molecule_atom_mult_ratio
O2w O2w 1_555 1 'x, y, z' 555 0 0 0 8 1
H2w1 H2w1 1_555 1 'x, y, z' 555 0 0 0 8 1
H2w2 H2w2 1_555 1 'x, y, z' 555 0 0 0 8 1
loop_
_cod_molecule_transform_label
_cod_molecule_transform_symop
O2w x,y,z
H2w1 x,y,z
H2w2 x,y,z
