#------------------------------------------------------------------------------
#$Date: 2008-02-23 20:19:23 +0000 (Sat, 23 Feb 2008) $
#$Revision: 146 $
#$URL: svn://cod.ibt.lt/cod/cif/7/7000063.cif $
#------------------------------------------------------------------------------
#
# This file is available in the Crystallography Open Database (COD),
# http://www.crystallography.net/
#
# All data on this site have been placed in the public domain by the
# contributors.
#
data_7000063
_journal_name_full               'Dalton Trans.'
_journal_year                    2005
_publ_section_title
;
Selective metal promoted hydrolysis of nitrile
groups in the side chain of tetraazamacrocyclic Cu2+ - complexes
;
loop_
_publ_author_name
'Thomas A. Kaden'
'Antonio Comparone'
'Markus Neuburger'
'Liselotte Siegfried'
_chemical_formula_sum            ' C18 H36 Cl2 Cu1 N6 O9 '
_chemical_formula_moiety         ' [ Cu(C18 H36 N6 O1)] (ClO4)2 '
_symmetry_cell_setting           Orthorhombic
_symmetry_space_group_name_H-M   'P 21 21 21 '
loop_
_symmetry_equiv_pos_as_xyz
x,y,z
x+1/2,-y+1/2,-z
-x,y+1/2,-z+1/2
-x+1/2,-y,z+1/2
_cell_length_a                   9.4996(11)
_cell_length_b                   12.3999(15)
_cell_length_c                   21.391(2)
_cell_angle_alpha                90
_cell_angle_beta                 90
_cell_angle_gamma                90
_cell_volume                     2519.7(5)
_cell_formula_units_Z            4
_chemical_formula_weight         614.97
_cell_measurement_reflns_used    2163
_cell_measurement_theta_min      3
_cell_measurement_theta_max      25
_cell_measurement_temperature    173
_exptl_crystal_description       ' plate '
_exptl_crystal_colour            ' blue '
_exptl_crystal_size_min          0.12
_exptl_crystal_size_mid          0.20
_exptl_crystal_size_max          0.24
_exptl_crystal_density_diffrn    1.621
_exptl_crystal_density_meas      ?
_exptl_crystal_F_000             1284
_exptl_absorpt_coefficient_mu    1.139
_diffrn_measurement_device_type
;
Nonius Kappa CCD
;
_diffrn_radiation_monochromator  graphite
##;
##COLLECT (Nonius BV, 1997)
##;
##;
##EvalCCD
##A. J. M. Duisenberg. Reflections on Area Detectors. Thesis, Utrecht, 1998
##;
##;
##EvalCCD
##A. J. M. Duisenberg. Reflections on Area Detectors. Thesis, Utrecht, 1998
##;
##;
##SIR92 (Altomare et al, 1994)
##;
_diffrn_measurement_method       '\f & \w scans'
_exptl_absorpt_correction_type   multi-scan
_exptl_absorpt_process_details
;
Denzo/Scalepack (Otwinowski & Minor, 1996)
;
_exptl_absorpt_correction_T_min  0.80
_exptl_absorpt_correction_T_max  0.87
_diffrn_standards_interval_time  0
_diffrn_standards_interval_count 0
_diffrn_standards_number         0
_diffrn_standards_decay_%        0.00
_diffrn_ambient_temperature      173
_diffrn_reflns_number            13644
_reflns_number_total             4394
_diffrn_reflns_av_R_equivalents  0.15
_diffrn_reflns_theta_min         3.286
_diffrn_reflns_theta_max         25.011
_diffrn_measured_fraction_theta_max 0.996
_diffrn_reflns_theta_full        25.011
_diffrn_measured_fraction_theta_full 0.996
_diffrn_reflns_limit_h_min       -10
_diffrn_reflns_limit_h_max       11
_diffrn_reflns_limit_k_min       -14
_diffrn_reflns_limit_k_max       10
_diffrn_reflns_limit_l_min       -25
_diffrn_reflns_limit_l_max       25
_reflns_limit_h_min              -11
_reflns_limit_h_max              11
_reflns_limit_k_min              0
_reflns_limit_k_max              14
_reflns_limit_l_min              0
_reflns_limit_l_max              25
_refine_diff_density_min         -1.66
_refine_diff_density_max         1.76
_refine_ls_number_reflns         3319
_refine_ls_number_restraints     0
_refine_ls_number_parameters     326
_refine_ls_wR_factor_ref         0.0631
_refine_ls_goodness_of_fit_ref   1.0765
_refine_ls_R_factor_all          0.0617
_refine_ls_wR_factor_all         0.0636
_reflns_threshold_expression     I>3.00u(I)
_reflns_number_gt                3319
_refine_ls_R_factor_gt           0.0609
_refine_ls_wR_factor_gt          0.0631
_refine_ls_shift/su_max          0.003699
_refine_ls_abs_structure_Flack   0.51(3)
_refine_ls_abs_structure_details 'Flack, 0 Friedel-pairs'
_refine_ls_structure_factor_coef F
_refine_ls_weighting_scheme      calc
_refine_ls_weighting_details
;
Method, part 1, Chebychev polynomial, (Watkin, 1994, Prince, 1982)
[weight] = 1.0/[A~0~*T~0~(x)+A~1~*T~1~(x) ... +A~n-1~]*T~n-1~(x)]
where A~i~ are the Chebychev coefficients listed below and x= Fcalc/Fmax
Method = Robust Weighting (Prince, 1982)
W = [weight] * [1-(deltaF/6*sigmaF)^2^]^2^
A~i~ are:
4.86 -9.16 4.13 -3.28
;
_diffrn_radiation_type           'Mo K\a'
_diffrn_radiation_wavelength     0.71073
_publ_section_references
;
Altomare, A., Cascarano, G., Giacovazzo G., Guagliardi A., Burla M.C.,
Polidori, G. & Camalli, M. (1994) SIR92 - a program for automatic solution
of crystal structures by direct methods. J. Appl. Cryst. (27), 435-435
Betteridge, P.W., Carruthers, J.R., Cooper, R.I.,
Prout, K., Watkin, D.J. (2003). J. Appl. Cryst. 36, 1487.
Nonius BV, COLLECT Software, 1997-2001)
Otwinowski, Z. & Minor, W. (1996), Processing of X-ray
Diffraction Data Collected in Oscillation Mode. Methods Enzymol.
276, 1997, 307-326. Ed Carter, C.W. & Sweet, R.M., Academic Press.
Prince, E.
Mathematical Techniques in Crystallography
and Materials Science
Springer-Verlag, New York, 1982.
Watkin D.J. (1994),
Acta Cryst, A50, 411-437
Watkin, D.J., Prout, C.K. & Pearce, L.J. (1996) CAMERON, Chemical
Crystallography Laboratory, OXFORD, UK.
;
loop_
_atom_site_label
_atom_site_type_symbol
_atom_site_fract_x
_atom_site_fract_y
_atom_site_fract_z
_atom_site_U_iso_or_equiv
_atom_site_occupancy
_atom_site_adp_type
_atom_site_refinement_flags_posn
_atom_site_refinement_flags_adp
_atom_site_refinement_flags_occupancy
_atom_site_disorder_assembly
_atom_site_disorder_group
_atom_site_attached_hydrogens
Cu1 Cu 0.04847(8) 0.03237(6) 0.11939(4) 0.0298 1.0000 Uani . . . . . .
N1 N -0.1256(7) 0.0005(5) 0.0613(3) 0.0394 1.0000 Uani . . . . . .
N2 N -0.0943(6) 0.0809(4) 0.1866(3) 0.0305 1.0000 Uani . . . . . .
N3 N 0.2291(7) 0.0602(5) 0.1772(3) 0.0358 1.0000 Uani . . . . . .
N4 N 0.1796(7) 0.0595(5) 0.0452(3) 0.0401 1.0000 Uani . . . . . .
N5 N 0.0975(7) -0.2995(5) 0.0937(3) 0.0443 1.0000 Uani . . . . . .
N6 N 0.4355(10) -0.1898(7) 0.3245(4) 0.0658 1.0000 Uani . . . . . .
O1 O 0.0735(5) -0.1376(4) 0.1338(2) 0.0403 1.0000 Uani . . . . . .
C1 C -0.2524(7) 0.0182(7) 0.1030(4) 0.0445 1.0000 Uani . . . . . .
C2 C -0.2231(8) 0.1087(7) 0.1499(4) 0.0451 1.0000 Uani . . . . . .
C3 C -0.1297(9) -0.0080(7) 0.2313(4) 0.0470 1.0000 Uani . . . . . .
C4 C -0.0499(9) 0.1768(6) 0.2221(3) 0.0439 1.0000 Uani . . . . . .
C5 C 0.0887(8) 0.1711(7) 0.2538(4) 0.0436 1.0000 Uani . . . . . .
C6 C 0.2128(10) 0.1644(7) 0.2099(4) 0.0478 1.0000 Uani . . . . . .
C7 C 0.3502(8) 0.0701(7) 0.1315(4) 0.0435 1.0000 Uani . . . . . .
C8 C 0.3011(8) 0.1224(7) 0.0725(4) 0.0455 1.0000 Uani . . . . . .
C9 C 0.2307(8) -0.0418(7) 0.0184(4) 0.0442 1.0000 Uani . . . . . .
C10 C 0.1207(9) 0.1280(7) -0.0065(4) 0.0449 1.0000 Uani . . . . . .
C11 C -0.0124(9) 0.0872(7) -0.0341(3) 0.0465 1.0000 Uani . . . . . .
C12 C -0.1359(9) 0.0850(7) 0.0115(4) 0.0469 1.0000 Uani . . . . . .
C13 C -0.1395(9) -0.1057(6) 0.0326(4) 0.0432 1.0000 Uani . . . . . .
C14 C -0.1187(9) -0.2041(7) 0.0729(4) 0.0462 1.0000 Uani . . . . . .
C15 C 0.0235(8) -0.2126(5) 0.1018(3) 0.0369 1.0000 Uani . . . . . .
C16 C 0.2547(8) -0.0316(7) 0.2209(3) 0.0365 1.0000 Uani . . . . . .
C17 C 0.3870(9) -0.0167(7) 0.2619(4) 0.0479 1.0000 Uani . . . . . .
C18 C 0.4135(9) -0.1134(7) 0.2972(4) 0.0477 1.0000 Uani . . . . . .
Cl1 Cl 0.02168(19) 0.41286(14) 0.09780(8) 0.0379 1.0000 Uani . . . . . .
Cl2 Cl 0.5059(2) -0.26104(15) 0.13141(10) 0.0462 1.0000 Uani . . . . . .
O2 O -0.0795(6) 0.4587(6) 0.1384(3) 0.0608 1.0000 Uani . . . . . .
O3 O -0.0291(9) 0.3099(5) 0.0777(3) 0.0788 1.0000 Uani . . . . . .
O4 O 0.1535(6) 0.4033(6) 0.1294(3) 0.0648 1.0000 Uani . . . . . .
O5 O 0.0385(6) 0.4806(5) 0.0437(2) 0.0504 1.0000 Uani . . . . . .
O6 O 0.3825(8) -0.3042(7) 0.1601(4) 0.0937 1.0000 Uani . . . . . .
O7 O 0.4801(11) -0.2080(9) 0.0753(4) 0.1097 1.0000 Uani . . . . . .
O8 O 0.5949(7) -0.3482(5) 0.1187(4) 0.0724 1.0000 Uani . . . . . .
O9 O 0.5734(8) -0.1897(6) 0.1718(3) 0.0750 1.0000 Uani . . . . . .
H1 H 0.1939(7) -0.3050(5) 0.1122(3) 0.0516 1.0000 Uiso R . . . . .
H2 H 0.0584(7) -0.3609(5) 0.0688(3) 0.0516 1.0000 Uiso R . . . . .
H11 H -0.2722(7) -0.0491(7) 0.1272(4) 0.0658 1.0000 Uiso R . . . . .
H12 H -0.3360(7) 0.0366(7) 0.0766(4) 0.0658 1.0000 Uiso R . . . . .
H21 H -0.3051(8) 0.1193(7) 0.1786(4) 0.0580 1.0000 Uiso R . . . . .
H22 H -0.2054(8) 0.1766(7) 0.1260(4) 0.0580 1.0000 Uiso R . . . . .
H31 H -0.0435(9) -0.0270(7) 0.2557(4) 0.0582 1.0000 Uiso R . . . . .
H32 H -0.2061(9) 0.0151(7) 0.2605(4) 0.0582 1.0000 Uiso R . . . . .
H33 H -0.1618(9) -0.0724(7) 0.2070(4) 0.0582 1.0000 Uiso R . . . . .
H41 H -0.1237(9) 0.1915(6) 0.2543(3) 0.0549 1.0000 Uiso R . . . . .
H42 H -0.0459(9) 0.2384(6) 0.1919(3) 0.0549 1.0000 Uiso R . . . . .
H51 H 0.1003(8) 0.2366(7) 0.2806(4) 0.0524 1.0000 Uiso R . . . . .
H52 H 0.0892(8) 0.1052(7) 0.2808(4) 0.0524 1.0000 Uiso R . . . . .
H61 H 0.3011(10) 0.1785(7) 0.2341(4) 0.0640 1.0000 Uiso R . . . . .
H62 H 0.2008(10) 0.2212(7) 0.1772(4) 0.0640 1.0000 Uiso R . . . . .
H71 H 0.4278(8) 0.1128(7) 0.1511(4) 0.0522 1.0000 Uiso R . . . . .
H72 H 0.3857(8) -0.0035(7) 0.1205(4) 0.0522 1.0000 Uiso R . . . . .
H81 H 0.3793(8) 0.1277(7) 0.0414(4) 0.0566 1.0000 Uiso R . . . . .
H82 H 0.2668(8) 0.1963(7) 0.0832(4) 0.0566 1.0000 Uiso R . . . . .
H91 H 0.1479(8) -0.0821(7) 0.0015(4) 0.0550 1.0000 Uiso R . . . . .
H92 H 0.2771(8) -0.0855(7) 0.0518(4) 0.0550 1.0000 Uiso R . . . . .
H93 H 0.2995(8) -0.0279(7) -0.0161(4) 0.0550 1.0000 Uiso R . . . . .
H101 H 0.1000(9) 0.2008(7) 0.0113(4) 0.0536 1.0000 Uiso R . . . . .
H102 H 0.1929(9) 0.1349(7) -0.0403(4) 0.0536 1.0000 Uiso R . . . . .
H111 H -0.0372(9) 0.1338(7) -0.0706(3) 0.0614 1.0000 Uiso R . . . . .
H112 H 0.0042(9) 0.0117(7) -0.0487(3) 0.0614 1.0000 Uiso R . . . . .
H121 H -0.1395(9) 0.1568(7) 0.0327(4) 0.0594 1.0000 Uiso R . . . . .
H122 H -0.2251(9) 0.0732(7) -0.0124(4) 0.0594 1.0000 Uiso R . . . . .
H131 H -0.2353(9) -0.1094(6) 0.0134(4) 0.0473 1.0000 Uiso R . . . . .
H132 H -0.0665(9) -0.1103(6) -0.0010(4) 0.0473 1.0000 Uiso R . . . . .
H141 H -0.1910(9) -0.2014(7) 0.1068(4) 0.0568 1.0000 Uiso R . . . . .
H142 H -0.1339(9) -0.2700(7) 0.0468(4) 0.0568 1.0000 Uiso R . . . . .
H161 H 0.1708(8) -0.0434(7) 0.2483(3) 0.0498 1.0000 Uiso R . . . . .
H162 H 0.2710(8) -0.0973(7) 0.1947(3) 0.0498 1.0000 Uiso R . . . . .
H171 H 0.3690(9) 0.0448(7) 0.2911(4) 0.0554 1.0000 Uiso R . . . . .
H172 H 0.4705(9) 0.0002(7) 0.2352(4) 0.0554 1.0000 Uiso R . . . . .
