#------------------------------------------------------------------------------
#$Date: 2008-01-26 20:30:04 +0000 (Sat, 26 Jan 2008) $
#$Revision: 21 $
#$URL: svn://cod.ibt.lt/cod/cif/8/8000008.cif $
#------------------------------------------------------------------------------
#
# This file is available in the Crystallography Open Database (COD),
# http://www.crystallography.net/
#
# All data on this site have been placed in the public domain by the
# contributors.
#
data_8000008
loop_
_publ_author_name
'Yu Chikamoto'
'Masakazu Hirotsu'
'Tatsuya Kawamoto'
'Takumi Konno'
_publ_contact_author
;
     Takumi Konno
  Department of Chemistry, Graduate School of Science, Osaka University, 
Toyonaka, Osaka, 560-0043, Japan
;
_publ_section_title
;
 Alkylation of Nonbridging Thiolato Groups in an S-bridged
 CoIIIPdIICoIII Trinuclear Complex: Control of Geometrical Isomerism by
 Tuning Trans Influence Due to Sulfur Donors
;
_journal_issue                   3
_journal_name_full               'Chemistry Letters'
_journal_page_first              362
_journal_volume                  34
_journal_year                    2005
_chemical_formula_moiety         'C14 H56 Cl4 Co2 N6 O7 Pd S6'
_chemical_formula_sum            'C14 H56 Cl4 Co2 N6 O7 Pd S6'
_chemical_formula_weight         979.07
_symmetry_cell_setting           monoclinic
_symmetry_space_group_name_H-M   P21
_atom_sites_solution_hydrogens   geom
_atom_sites_solution_primary     direct
_atom_sites_solution_secondary   difmap
_cell_angle_alpha                90.00
_cell_angle_beta                 112.312(9)
_cell_angle_gamma                90.00
_cell_formula_units_Z            4
_cell_length_a                   16.155(2)
_cell_length_b                   15.088(3)
_cell_length_c                   17.174(2)
_cell_measurement_temperature    296(2)
_cell_measurement_theta_max      15.0
_cell_measurement_theta_min      14.8
_cell_volume                     3872.8(10)
_computing_cell_refinement       'MSC/AFC Diffractometer Control'
_computing_data_collection       'MSC/AFC Diffractometer Control'
_computing_publication_material  'CrystalStructure 3.6.0'
_computing_structure_refinement  'SHELXL-97 (Sheldrick, 1997)'
_computing_structure_solution    'SHELXS-97 (Sheldrick, 1990)'
_diffrn_ambient_temperature      296(2)
_diffrn_measured_fraction_theta_full 0.997
_diffrn_measured_fraction_theta_max 0.997
_diffrn_measurement_device_type  'Rigaku AFC5R'
_diffrn_measurement_method       \w-2\q
_diffrn_radiation_monochromator  graphite
_diffrn_radiation_source         'fine-focus sealed tube'
_diffrn_radiation_type           MoK\a
_diffrn_radiation_wavelength     0.71069
_diffrn_reflns_av_R_equivalents  0.0000
_diffrn_reflns_av_sigmaI/netI    0.0798
_diffrn_reflns_limit_h_max       20
_diffrn_reflns_limit_h_min       0
_diffrn_reflns_limit_k_max       19
_diffrn_reflns_limit_k_min       0
_diffrn_reflns_limit_l_max       20
_diffrn_reflns_limit_l_min       -22
_diffrn_reflns_number            9241
_diffrn_reflns_theta_full        27.54
_diffrn_reflns_theta_max         27.54
_diffrn_reflns_theta_min         2.53
_diffrn_standards_interval_count 150
_diffrn_standards_number         3
_exptl_absorpt_coefficient_mu    1.944
_exptl_absorpt_correction_T_max  0.6971
_exptl_absorpt_correction_T_min  0.4431
_exptl_absorpt_correction_type   psi-scans
_exptl_absorpt_process_details   '(North, Phillips & Mathews, 1968)'
_exptl_crystal_colour            red
_exptl_crystal_density_diffrn    1.679
_exptl_crystal_density_method    'not measured'
_exptl_crystal_description       rod
_exptl_crystal_F_000             2008
_exptl_crystal_size_max          0.50
_exptl_crystal_size_mid          0.20
_exptl_crystal_size_min          0.20
_refine_diff_density_max         0.546
_refine_diff_density_min         -0.371
_refine_diff_density_rms         0.096
_refine_ls_abs_structure_details 'Flack H D (1983), Acta Cryst. A39, 876-881'
_refine_ls_abs_structure_Flack   -0.03(5)
_refine_ls_extinction_coef       0.00050(8)
_refine_ls_extinction_expression Fc^*^=kFc[1+0.001xFc^2^\l^3^/sin(2\q)]^-1/4^
_refine_ls_extinction_method     SHELXL
_refine_ls_goodness_of_fit_ref   0.916
_refine_ls_hydrogen_treatment    mixed
_refine_ls_matrix_type           full
_refine_ls_number_parameters     616
_refine_ls_number_reflns         9241
_refine_ls_number_restraints     0
_refine_ls_restrained_S_all      0.916
_refine_ls_R_factor_all          0.1803
_refine_ls_R_factor_gt           0.0327
_refine_ls_shift/su_max          0.000
_refine_ls_shift/su_mean         0.000
_refine_ls_structure_factor_coef Fsqd
_refine_ls_weighting_details
'calc w=1/[\s^2^(Fo^2^)+(0.0684P)^2^+0.0000P] where P=(Fo^2^+2Fc^2^)/3'
_refine_ls_weighting_scheme      calc
_refine_ls_wR_factor_gt          0.1016
_refine_ls_wR_factor_ref         0.1555
_reflns_number_gt                2939
_reflns_number_total             9241
_reflns_threshold_expression     >2sigma(I)
loop_
_symmetry_equiv_pos_as_xyz
'x, y, z'
'-x, y+1/2, -z'
loop_
_atom_site_label
_atom_site_type_symbol
_atom_site_fract_x
_atom_site_fract_z
_atom_site_U_iso_or_equiv
_atom_site_adp_type
_atom_site_occupancy
_atom_site_symetry_multiplicity
_atom_site_calc_flag
_atom_site_refinement_flags
Pd1 Pd 0.00001(18) 0.24958(18) 0.0274(4) Uani 1 1 d .
Pd2 Pd 0.50035(18) 0.25036(19) 0.0281(4) Uani 1 1 d .
Co1 Co -0.1807(3) 0.0688(2) 0.0251(9) Uani 1 1 d .
Co2 Co 0.1798(3) 0.4308(3) 0.0255(9) Uani 1 1 d .
Co3 Co 0.3207(3) 0.0695(3) 0.0305(11) Uani 1 1 d .
Co4 Co 0.6801(3) 0.4318(3) 0.0309(11) Uani 1 1 d .
Cl1 Cl 0.2738(7) 0.3744(6) 0.069(3) Uani 1 1 d .
Cl2 Cl -0.2750(7) 0.1236(6) 0.071(3) Uani 1 1 d .
Cl3 Cl 0.2273(8) 0.1234(6) 0.075(3) Uani 1 1 d .
Cl4 Cl 0.7717(6) 0.3773(6) 0.056(3) Uani 1 1 d .
Cl5 Cl 0.1338(7) 0.0518(7) 0.057(3) Uani 1 1 d .
Cl6 Cl 0.6314(6) 0.5518(6) 0.048(2) Uani 1 1 d .
Cl7 Cl 0.3680(6) -0.0522(6) 0.055(3) Uani 1 1 d .
Cl8 Cl -0.1323(6) 0.4487(6) 0.054(3) Uani 1 1 d .
S1 S -0.0318(5) 0.1055(5) 0.0297(18) Uani 1 1 d .
S2 S -0.1545(5) 0.2079(5) 0.0322(19) Uani 1 1 d .
S3 S -0.3337(5) 0.0227(5) 0.037(2) Uani 1 1 d .
loop_
_atom_site_aniso_label
_atom_site_aniso_U_11
_atom_site_aniso_U_22
_atom_site_aniso_U_33
_atom_site_aniso_U_23
_atom_site_aniso_U_13
_atom_site_aniso_U_12
Pd1 0.0250(9) 0.0310(9) 0.0245(7) 0.0021(15) 0.0076(6) 0.0028(14)
Pd2 0.0265(9) 0.0282(9) 0.0280(8) -0.0015(15) 0.0085(7) 0.0002(13)
Co1 0.028(2) 0.021(2) 0.021(2) -0.0005(19) 0.0041(17) 0.0007(18)
Co2 0.024(2) 0.021(2) 0.030(2) 0.001(2) 0.0082(18) 0.0018(19)
Co3 0.029(2) 0.029(3) 0.029(2) -0.009(2) 0.0065(19) -0.005(2)
Co4 0.025(2) 0.032(3) 0.035(3) 0.000(2) 0.0109(19) -0.002(2)
Cl1 0.082(7) 0.065(6) 0.051(6) -0.013(5) 0.015(5) 0.027(5)
Cl2 0.067(7) 0.052(6) 0.069(7) 0.022(5) -0.001(5) -0.005(5)
Cl3 0.096(8) 0.092(8) 0.042(5) -0.005(5) 0.031(6) 0.002(7)
Cl4 0.061(5) 0.042(4) 0.059(6) -0.019(3) 0.015(4) 0.012(4)
Cl5 0.064(7) 0.043(5) 0.069(7) 0.002(5) 0.033(6) 0.005(5)
Cl6 0.052(5) 0.041(5) 0.062(6) -0.012(5) 0.035(5) 0.007(4)
Cl7 0.072(7) 0.038(5) 0.054(6) 0.002(5) 0.025(5) -0.009(5)
Cl8 0.059(6) 0.044(5) 0.070(7) -0.021(5) 0.035(6) -0.011(5)
S1 0.028(4) 0.030(4) 0.031(4) -0.003(4) 0.011(3) 0.000(4)
S2 0.033(4) 0.030(5) 0.034(4) -0.004(4) 0.015(4) -0.001(4)
S3 0.021(3) 0.033(4) 0.048(5) -0.001(4) 0.004(3) 0.008(3)
S4 0.033(4) 0.022(4) 0.032(4) -0.002(3) 0.017(3) -0.003(3)
S5 0.027(4) 0.034(5) 0.034(5) 0.002(4) 0.012(4) -0.005(4)
S6 0.034(4) 0.031(5) 0.041(4) -0.007(4) 0.016(3) 0.000(4)
S7 0.025(4) 0.050(6) 0.032(4) -0.004(4) 0.010(3) -0.001(4)
S8 0.026(4) 0.034(5) 0.038(5) 0.003(4) 0.009(3) -0.002(4)
S9 0.033(5) 0.039(5) 0.065(6) -0.004(5) 0.008(4) 0.005(4)
S10 0.031(4) 0.040(5) 0.019(3) 0.004(3) 0.003(3) 0.007(4)
S11 0.034(4) 0.034(4) 0.027(4) 0.002(4) 0.016(3) 0.007(4)
S12 0.029(4) 0.045(6) 0.049(5) -0.001(5) 0.009(4) -0.009(4)
N1 0.008(8) 0.060(15) 0.040(12) 0.009(10) -0.017(7) -0.017(8)
N2 0.034(12) 0.038(14) 0.005(8) -0.001(9) -0.010(8) 0.008(10)
N3 0.056(17) 0.042(16) 0.063(17) 0.006(13) 0.019(14) 0.015(14)
N4 0.058(16) 0.014(11) 0.047(15) 0.007(10) 0.028(13) 0.002(10)
N5 0.039(13) 0.017(11) 0.063(18) 0.016(11) 0.024(13) 0.018(9)
N6 0.046(15) 0.032(13) 0.019(10) 0.004(10) 0.021(11) -0.006(12)
N7 0.065(17) 0.031(14) 0.035(15) -0.012(12) 0.032(13) -0.010(12)
N8 0.045(13) 0.037(13) 0.046(14) -0.026(10) 0.033(12) -0.020(10)
N9 0.011(8) 0.049(14) 0.028(11) -0.013(10) -0.018(7) 0.020(8)
N10 0.036(14) 0.015(11) 0.035(13) -0.004(9) 0.006(11) 0.008(9)
N11 0.030(13) 0.020(12) 0.056(18) 0.019(12) 0.025(13) 0.013(10)
N12 0.079(18) 0.019(11) 0.027(12) -0.006(9) 0.028(12) -0.016(11)
C1 0.049(18) 0.036(16) 0.022(13) 0.024(11) -0.018(11) -0.004(14)
C2 0.040(18) 0.013(12) 0.08(2) 0.016(13) 0.012(16) 0.013(12)
C3 0.05(2) 0.039(17) 0.049(18) 0.009(14) 0.027(15) -0.019(14)
C4 0.017(12) 0.034(16) 0.058(19) 0.000(14) 0.000(11) -0.008(11)
C5 0.025(13) 0.08(2) 0.049(19) -0.018(16) 0.002(13) -0.006(13)
C6 0.08(2) 0.040(15) 0.021(12) -0.004(10) -0.040(12) 0.015(15)
C7 0.025(16) 0.17(3) 0.051(18) 0.030(19) 0.011(14) 0.030(18)
C8 0.037(15) 0.047(16) 0.056(18) 0.003(13) 0.023(13) -0.027(13)
C9 0.023(14) 0.048(18) 0.051(19) 0.002(15) 0.010(13) -0.006(14)
C10 0.024(13) 0.06(2) 0.041(18) -0.012(16) 0.002(12) -0.003(13)
C11 0.034(13) 0.015(10) 0.015(10) 0.000(8) 0.003(9) -0.009(9)
C12 0.037(18) 0.034(13) 0.050(19) 0.002(12) -0.020(14) 0.007(12)
C13 0.10(2) 0.058(15) 0.011(10) 0.016(10) 0.022(12) 0.042(14)
C14 0.054(17) 0.019(12) 0.11(3) -0.006(14) 0.053(17) -0.015(11)
C15 0.031(15) 0.051(17) 0.019(12) 0.011(11) 0.015(11) -0.010(13)
C16 0.07(2) 0.019(14) 0.05(2) -0.020(14) 0.027(19) -0.001(14)
C17 0.072(19) 0.031(14) 0.027(14) -0.006(11) 0.026(13) 0.031(13)
C18 0.058(19) 0.036(16) 0.032(13) 0.004(12) 0.028(13) 0.004(15)
C19 0.06(2) 0.031(14) 0.053(18) 0.023(12) 0.017(16) 0.006(13)
C20 0.011(9) 0.06(2) 0.065(19) -0.009(16) 0.017(11) -0.013(11)
C21 0.022(13) 0.053(19) 0.06(2) 0.017(15) -0.004(13) 0.025(12)
C22 0.007(10) 0.056(19) 0.07(2) 0.005(16) 0.019(13) -0.003(11)
C23 0.029(14) 0.030(15) 0.07(2) 0.012(13) -0.006(13) -0.034(12)
C24 0.034(16) 0.031(15) 0.038(16) 0.014(12) 0.014(13) 0.002(12)
C25 0.05(2) 0.04(2) 0.05(2) 0.002(16) 0.026(17) -0.004(16)
C26 0.026(14) 0.060(18) 0.036(15) 0.016(13) 0.006(11) -0.003(12)
C27 0.07(2) 0.05(2) 0.025(12) 0.016(13) 0.005(13) 0.009(16)
C28 0.050(16) 0.009(11) 0.08(2) 0.013(12) -0.013(14) 0.021(10)
loop_
_atom_type_symbol
_atom_type_description
_atom_type_scat_dispersion_real
_atom_type_scat_dispersion_imag
_atom_type_scat_source
C C 0.0033 0.0016 'International Tables Vol C Tables 4.2.6.8 and 6.1.1.4'
H H 0.0000 0.0000 'International Tables Vol C Tables 4.2.6.8 and 6.1.1.4'
O O 0.0106 0.0060 'International Tables Vol C Tables 4.2.6.8 and 6.1.1.4'
N N 0.0061 0.0033 'International Tables Vol C Tables 4.2.6.8 and 6.1.1.4'
Cl Cl 0.1484 0.1585 'International Tables Vol C Tables 4.2.6.8 and 6.1.1.4'
Co Co 0.3494 0.9721 'International Tables Vol C Tables 4.2.6.8 and 6.1.1.4'
Pd Pd -0.9988 1.0072 'International Tables Vol C Tables 4.2.6.8 and 6.1.1.4'
S S 0.1246 0.1234 'International Tables Vol C Tables 4.2.6.8 and 6.1.1.4'
loop_
_geom_angle_atom_site_label_1
_geom_angle_atom_site_label_2
_geom_angle_atom_site_label_3
_geom_angle
S4 Pd1 S2 95.4(3)
S4 Pd1 S5 84.6(3)
S2 Pd1 S5 175.7(3)
S4 Pd1 S1 171.5(2)
S2 Pd1 S1 84.1(3)
S5 Pd1 S1 96.5(3)
S7 Pd2 S8 84.4(3)
S7 Pd2 S10 170.2(2)
S8 Pd2 S10 96.4(3)
S7 Pd2 S11 96.1(3)
S8 Pd2 S11 174.9(3)
S10 Pd2 S11 84.0(3)
N3 Co1 N1 90.2(11)
N3 Co1 N2 90.7(10)
N1 Co1 N2 176.9(8)
N3 Co1 S1 88.1(8)
N1 Co1 S1 85.8(6)
N2 Co1 S1 91.2(7)
N3 Co1 S2 174.0(8)
N1 Co1 S2 93.3(8)
N2 Co1 S2 85.5(6)
S1 Co1 S2 87.3(3)
N3 Co1 S3 88.2(8)
N1 Co1 S3 95.0(6)
N2 Co1 S3 88.0(7)
S1 Co1 S3 176.1(4)
S2 Co1 S3 96.4(3)
N4 Co2 N6 92.4(10)
N4 Co2 N5 176.2(9)
N6 Co2 N5 89.5(10)
N4 Co2 S4 86.1(7)
N6 Co2 S4 90.4(7)
N5 Co2 S4 90.6(7)
N4 Co2 S5 92.0(8)
N6 Co2 S5 174.8(7)
N5 Co2 S5 86.1(7)
S4 Co2 S5 87.0(3)
N4 Co2 S6 95.1(8)
N6 Co2 S6 87.2(7)
N5 Co2 S6 88.2(7)
S4 Co2 S6 177.4(4)
S5 Co2 S6 95.3(3)
N8 Co3 N7 175.6(10)
N8 Co3 N9 94.3(9)
N7 Co3 N9 88.7(10)
N8 Co3 S8 90.3(7)
N7 Co3 S8 86.8(7)
N9 Co3 S8 175.0(7)
N8 Co3 S7 90.2(7)
N7 Co3 S7 92.9(8)
N9 Co3 S7 91.0(6)
S8 Co3 S7 87.1(3)
N8 Co3 S9 91.9(7)
N7 Co3 S9 85.1(8)
N9 Co3 S9 86.9(6)
S8 Co3 S9 94.8(4)
S7 Co3 S9 177.1(4)
N10 Co4 N11 175.4(10)
N10 Co4 N12 93.3(9)
N11 Co4 N12 90.8(9)
N10 Co4 S10 86.9(7)
N11 Co4 S10 91.1(7)
N12 Co4 S10 91.0(7)
N10 Co4 S11 89.3(8)
N11 Co4 S11 86.5(8)
N12 Co4 S11 176.8(7)
S10 Co4 S11 87.5(3)
N10 Co4 S12 95.4(7)
N11 Co4 S12 86.7(7)
N12 Co4 S12 87.4(7)
S10 Co4 S12 177.2(4)
S11 Co4 S12 94.0(3)
C1 S1 Co1 98.0(9)
C1 S1 Pd1 102.9(9)
Co1 S1 Pd1 94.5(3)
C3 S2 Co1 101.2(11)
C3 S2 Pd1 100.6(11)
Co1 S2 Pd1 94.0(3)
C5 S3 C7 101.3(16)
C5 S3 Co1 101.6(11)
C7 S3 Co1 111.9(10)
C8 S4 Co2 99.0(9)
C8 S4 Pd1 102.5(10)
Co2 S4 Pd1 94.7(3)
C10 S5 Co2 98.6(12)
C10 S5 Pd1 98.2(10)
Co2 S5 Pd1 93.7(3)
C12 S6 C14 98.5(15)
C12 S6 Co2 98.5(11)
C14 S6 Co2 111.3(9)
C15 S8 Co3 97.3(9)
C15 S8 Pd2 103.2(9)
Co3 S8 Pd2 94.5(3)
C17 S7 Co3 95.6(10)
C17 S7 Pd2 104.6(9)
Co3 S7 Pd2 94.0(3)
C21 S9 C19 101.0(15)
C21 S9 Co3 114.3(9)
C19 S9 Co3 93.6(10)
C22 S10 Co4 96.9(8)
C22 S10 Pd2 105.1(11)
Co4 S10 Pd2 94.6(3)
C24 S11 Co4 96.0(10)
C24 S11 Pd2 101.7(9)
Co4 S11 Pd2 94.0(3)
C28 S12 C26 100.8(14)
C28 S12 Co4 113.7(10)
C26 S12 Co4 92.7(9)
C2 N1 Co1 117.3(16)
C4 N2 Co1 119.5(18)
C6 N3 Co1 112.1(19)
C9 N4 Co2 114.5(19)
C11 N5 Co2 118.0(16)
C13 N6 Co2 111.5(15)
C16 N7 Co3 111.7(18)
C18 N8 Co3 112.7(18)
C20 N9 Co3 119.4(17)
C23 N10 Co4 117.3(18)
C25 N11 Co4 113(2)
C27 N12 Co4 119.4(19)
C2 C1 S1 107.9(19)
C1 C2 N1 105(2)
C4 C3 S2 104.6(18)
N2 C4 C3 113(2)
C6 C5 S3 107(2)
C5 C6 N3 115(2)
C9 C8 S4 107(2)
C8 C9 N4 114(3)
C11 C10 S5 113(2)
N5 C11 C10 108(2)
C13 C12 S6 111(2)
N6 C13 C12 110(2)
C16 C15 S8 108.5(19)
C15 C16 N7 106(2)
C18 C17 S7 107.5(16)
N8 C18 C17 111(2)
C20 C19 S9 111(2)
N9 C20 C19 108(2)
C23 C22 S10 109.8(17)
N10 C23 C22 108(2)
C25 C24 S11 108(2)
C24 C25 N11 108(3)
C27 C26 S12 112(2)
N12 C27 C26 103(2)
loop_
_geom_bond_atom_site_label_1
_geom_bond_atom_site_label_2
_geom_bond_distance
_geom_bond_site_symmetry_2
Pd1 S4 2.304(8) .
Pd1 S2 2.322(8) .
Pd1 S5 2.332(8) .
Pd1 S1 2.334(9) .
Pd2 S7 2.313(9) .
Pd2 S8 2.320(8) .
Pd2 S10 2.321(8) .
Pd2 S11 2.338(8) .
Co1 N3 1.90(2) .
Co1 N1 1.92(2) .
Co1 N2 1.96(2) .
Co1 S1 2.245(9) .
Co1 S2 2.274(9) .
Co1 S3 2.291(8) .
Co2 N4 1.98(2) .
Co2 N6 1.996(19) .
Co2 N5 2.01(2) .
Co2 S4 2.260(9) .
Co2 S5 2.271(9) .
Co2 S6 2.278(9) .
Co3 N8 1.98(2) .
Co3 N7 1.99(3) .
Co3 N9 2.01(2) .
Co3 S8 2.247(9) .
Co3 S7 2.270(9) .
Co3 S9 2.291(9) .
Co4 N10 2.00(2) .
Co4 N11 2.03(2) .
Co4 N12 2.04(2) .
Co4 S10 2.251(9) .
Co4 S11 2.256(8) .
Co4 S12 2.317(9) .
S1 C1 1.82(3) .
S2 C3 1.81(3) .
S3 C5 1.67(3) .
S3 C7 1.82(3) .
S4 C8 1.82(3) .
S5 C10 1.79(3) .
S6 C12 1.68(3) .
S6 C14 1.82(3) .
S8 C15 1.81(3) .
S7 C17 1.84(2) .
S9 C21 1.72(3) .
S9 C19 1.93(3) .
S10 C22 1.79(3) .
S11 C24 1.89(3) .
S12 C28 1.84(2) .
S12 C26 1.92(3) .
O6 O19 1.8131(3) .
O11 O18 1.24237(19) .
O12 O16 1.21946(14) 1_655
O16 O12 1.21946(13) 1_455
N1 C2 1.51(3) .
N2 C4 1.39(3) .
N3 C6 1.59(3) .
N4 C9 1.47(3) .
N5 C11 1.48(3) .
N6 C13 1.50(3) .
N7 C16 1.59(3) .
N8 C18 1.50(3) .
N9 C20 1.45(3) .
N10 C23 1.44(3) .
N11 C25 1.53(4) .
N12 C27 1.51(3) .
C1 C2 1.49(4) .
C3 C4 1.62(4) .
C5 C6 1.51(4) .
C8 C9 1.44(3) .
C10 C11 1.52(4) .
C12 C13 1.52(4) .
C15 C16 1.42(4) .
C17 C18 1.55(4) .
C19 C20 1.47(4) .
C22 C23 1.55(4) .
C24 C25 1.40(4) .
C26 C27 1.54(4) .
