Supplementary Material (ESI) for Dalton Transactions
This journal is © The Royal Society of Chemistry 2002

data_global

_journal_coden_Cambridge      186

_publ_requested_journal       'Dalton Transactions'

loop_
_publ_author_name
'Leung, Wa-Hung'
'Song, Yinling'
'Wong, Wai-Yeung'
'Xin, Xinquan'
'Zhang, Qian-Feng'

_publ_contact_author_name     	'Dr Wa-Hung Leung'  
_publ_contact_author_address 
;
Department of Chemistry
The Hong Kong University of Science & Technology
Clear Water Bay
Kowloon
HONG KONG
;

_publ_contact_author_email       'CHLEUNG@UST.HK'

_publ_section_title		
;
Syntheses, molecular structures and optical nonlinearities of
heteroselenometallic W-Se-Pd compounds containing bidentate phosphine
ligands.
; 

data_W-Pd-Se-dppm cluster 

_database_code_CSD	132668


_audit_creation_method            SHELXL-97 
_chemical_name_systematic 
; 
? 
; 
_chemical_name_common             ? 
_chemical_melting_point           ? 
_chemical_formula_moiety          ? 
_chemical_formula_sum 
'C56 H58 N2 O2 P4 Pd4 Se8 W2' 
_chemical_formula_weight          2340.04 

loop_ 
_atom_type_symbol 
_atom_type_description 
_atom_type_scat_dispersion_real 
_atom_type_scat_dispersion_imag 
_atom_type_scat_source 
'C'  'C'   0.0033   0.0016 
'International Tables Vol C Tables 4.2.6.8 and 6.1.1.4' 
'H'  'H'   0.0000   0.0000 
'International Tables Vol C Tables 4.2.6.8 and 6.1.1.4' 
'N'  'N'   0.0061   0.0033 
'International Tables Vol C Tables 4.2.6.8 and 6.1.1.4' 
'O'  'O'   0.0106   0.0060 
'International Tables Vol C Tables 4.2.6.8 and 6.1.1.4' 
'P'  'P'   0.1023   0.0942 
'International Tables Vol C Tables 4.2.6.8 and 6.1.1.4' 
'Se'  'Se'  -0.0929   2.2259 
'International Tables Vol C Tables 4.2.6.8 and 6.1.1.4' 
'Pd'  'Pd'  -0.9988   1.0072 
'International Tables Vol C Tables 4.2.6.8 and 6.1.1.4' 
'W'  'W'  -0.8490   6.8722 
'International Tables Vol C Tables 4.2.6.8 and 6.1.1.4' 

_symmetry_cell_setting            Monoclinic 
_symmetry_space_group_name_H-M    'P 21 /c'

loop_ 
_symmetry_equiv_pos_as_xyz 
'x, y, z' 
'-x, y+1/2, -z+1/2' 
'-x, -y, -z' 
'x, -y-1/2, z-1/2' 

_cell_length_a                    10.55250(10) 
_cell_length_b                    15.1794(2) 
_cell_length_c                    21.2565(2) 
_cell_angle_alpha                 90.00 
_cell_angle_beta                  98.7260(10) 
_cell_angle_gamma                 90.00 
_cell_volume                      3365.47(6) 
_cell_formula_units_Z             2 
_cell_measurement_temperature     293(2) 
_cell_measurement_reflns_used     8192
_cell_measurement_theta_min       1.66 
_cell_measurement_theta_max       28.44

_exptl_crystal_description        needle
_exptl_crystal_colour             black 
_exptl_crystal_size_max           0.46 
_exptl_crystal_size_mid           0.12 
_exptl_crystal_size_min           0.08 
_exptl_crystal_density_meas       ? 
_exptl_crystal_density_diffrn     2.309 
_exptl_crystal_density_method     'not measured' 
_exptl_crystal_F_000              2176 
_exptl_absorpt_coefficient_mu     8.911 
_exptl_absorpt_correction_type    'empirical using SADABS (Sheldrick, 1996)'
_exptl_absorpt_correction_T_min   0.242 
_exptl_absorpt_correction_T_max   0.524 
_exptl_absorpt_process_details    ? 

_exptl_special_details 
; 
? 
; 

_diffrn_ambient_temperature       293(2) 
_diffrn_radiation_wavelength      0.71073 
_diffrn_radiation_type            MoK\a 
_diffrn_radiation_source          'fine-focus sealed tube' 
_diffrn_radiation_monochromator   graphite 
_diffrn_measurement_device_type
;
Siemens SMART CCD area detector diffractometer
;
_diffrn_measurement_method        '\w scan'
_diffrn_detector_area_resol_mean  8.33
_diffrn_standards_number          ? 
_diffrn_standards_interval_count  ? 
_diffrn_standards_interval_time   ? 
_diffrn_standards_decay_%         ? 
_diffrn_reflns_number             22144 
_diffrn_reflns_av_R_equivalents   0.0933 
_diffrn_reflns_av_sigmaI/netI     0.1231 
_diffrn_reflns_limit_h_min        -14 
_diffrn_reflns_limit_h_max        12 
_diffrn_reflns_limit_k_min        -20 
_diffrn_reflns_limit_k_max        19 
_diffrn_reflns_limit_l_min        -22 
_diffrn_reflns_limit_l_max        28 
_diffrn_reflns_theta_min          1.66 
_diffrn_reflns_theta_max          28.30 
_reflns_number_total              8263 
_reflns_number_gt                 4569 
_reflns_threshold_expression      >2sigma(I) 

_computing_data_collection        'SMART (Siemens, 1996a)' 
_computing_cell_refinement        'SAINT (Siemens, 1996b)' 
_computing_data_reduction          SAINT 
_computing_structure_solution     'SHELXTL (Sheldrick, 1997)' 
_computing_structure_refinement    SHELXTL  
_computing_molecular_graphics      SHELXTL 
_computing_publication_material   'SHELXTL and PARST (Nardelli, 1995)' 

_refine_special_details 
; 
Refinement of F^2^ against ALL reflections.  The weighted R-factor wR and 
goodness of fit S are based on F^2^, conventional R-factors R are based 
on F, with F set to zero for negative F^2^. The threshold expression of 
F^2^ > 2sigma(F^2^) is used only for calculating R-factors(gt) etc. and is 
not relevant to the choice of reflections for refinement.  R-factors based 
on F^2^ are statistically about twice as large as those based on F, and R- 
factors based on ALL data will be even larger. 
; 

_refine_ls_structure_factor_coef  Fsqd  
_refine_ls_matrix_type            full 
_refine_ls_weighting_scheme       calc  
_refine_ls_weighting_details 
'calc w=1/[\s^2^(Fo^2^)+(0.0421P)^2^+0.0000P] where P=(Fo^2^+2Fc^2^)/3' 
_atom_sites_solution_primary      direct 
_atom_sites_solution_secondary    difmap 
_atom_sites_solution_hydrogens    geom 
_refine_ls_hydrogen_treatment     mixed 
_refine_ls_extinction_method      none 
_refine_ls_extinction_coef        ? 
_refine_ls_number_reflns          8263 
_refine_ls_number_parameters      352 
_refine_ls_number_restraints      0 
_refine_ls_R_factor_all           0.1252 
_refine_ls_R_factor_gt            0.0534 
_refine_ls_wR_factor_ref          0.1261 
_refine_ls_wR_factor_gt           0.1029 
_refine_ls_goodness_of_fit_ref    0.950 
_refine_ls_restrained_S_all       0.950 
_refine_ls_shift/su_max           0.001 
_refine_ls_shift/su_mean          0.000 

loop_ 
_atom_site_label 
_atom_site_type_symbol 
_atom_site_fract_x 
_atom_site_fract_y 
_atom_site_fract_z 
_atom_site_U_iso_or_equiv 
_atom_site_adp_type 
_atom_site_occupancy 
_atom_site_symmetry_multiplicity 
_atom_site_calc_flag 
_atom_site_refinement_flags 
_atom_site_disorder_assembly 
_atom_site_disorder_group 
W1 W 0.03577(4) 0.78875(3) 0.054942(18) 0.03206(12) Uani 1 1 d . . . 
Pd1 Pd -0.01995(7) 0.96108(5) 0.10744(3) 0.03023(18) Uani 1 1 d . . . 
Pd2 Pd 0.11341(7) 0.89448(5) -0.04922(3) 0.03181(19) Uani 1 1 d . . . 
Se1 Se -0.08532(9) 0.90664(7) -0.00202(4) 0.0332(2) Uani 1 1 d . . . 
Se2 Se 0.09653(11) 0.83218(7) 0.16073(5) 0.0409(3) Uani 1 1 d . . . 
Se3 Se 0.21922(11) 0.76556(7) 0.00742(5) 0.0433(3) Uani 1 1 d . . . 
Se4 Se -0.08522(15) 0.66461(9) 0.05033(7) 0.0716(4) Uani 1 1 d . . . 
P1 P 0.2485(3) 0.89754(19) -0.12285(12) 0.0378(6) Uani 1 1 d . . . 
P2 P -0.0116(3) 1.03479(17) 0.20157(11) 0.0329(6) Uani 1 1 d . . . 
C1 C 0.3514(10) 0.9921(7) -0.1294(5) 0.042(3) Uani 1 1 d . . . 
C2 C 0.3767(11) 1.0548(9) -0.0806(6) 0.061(3) Uani 1 1 d . . . 
H2A H 0.3334 1.0513 -0.0457 0.073 Uiso 1 1 calc R . . 
C3 C 0.4633(14) 1.1208(11) -0.0834(8) 0.091(5) Uani 1 1 d . . . 
H3A H 0.4795 1.1614 -0.0503 0.109 Uiso 1 1 calc R . . 
C4 C 0.5265(13) 1.1272(10) -0.1348(8) 0.077(4) Uani 1 1 d . . . 
H4A H 0.5862 1.1718 -0.1367 0.092 Uiso 1 1 calc R . . 
C5 C 0.5014(12) 1.0682(9) -0.1827(6) 0.065(4) Uani 1 1 d . . . 
H5A H 0.5433 1.0729 -0.2181 0.078 Uiso 1 1 calc R . . 
C6 C 0.4154(11) 1.0021(9) -0.1798(5) 0.059(3) Uani 1 1 d . . . 
H6A H 0.3998 0.9625 -0.2135 0.071 Uiso 1 1 calc R . . 
C7 C 0.3629(13) 0.8067(8) -0.1219(5) 0.055(3) Uani 1 1 d . . . 
C8 C 0.4804(13) 0.8134(10) -0.0845(8) 0.083(5) Uani 1 1 d . . . 
H8A H 0.5017 0.8644 -0.0611 0.100 Uiso 1 1 calc R . . 
C9 C 0.5697(17) 0.7431(15) -0.0813(11) 0.117(7) Uani 1 1 d . . . 
H9A H 0.6509 0.7490 -0.0576 0.141 Uiso 1 1 calc R . . 
C10 C 0.536(2) 0.6680(16) -0.1127(11) 0.129(10) Uani 1 1 d . . . 
H10A H 0.5929 0.6210 -0.1086 0.155 Uiso 1 1 calc R . . 
C11 C 0.421(2) 0.6586(12) -0.1503(8) 0.122(8) Uani 1 1 d . . . 
H11A H 0.4018 0.6073 -0.1736 0.146 Uiso 1 1 calc R . . 
C12 C 0.3297(17) 0.7293(10) -0.1535(6) 0.089(5) Uani 1 1 d . . . 
H12A H 0.2483 0.7226 -0.1769 0.107 Uiso 1 1 calc R . . 
C13 C -0.0258(10) 0.9640(6) 0.2704(4) 0.035(2) Uani 1 1 d . . . 
C14 C 0.0720(16) 0.9579(10) 0.3206(6) 0.093(5) Uani 1 1 d . . . 
H14A H 0.1477 0.9895 0.3212 0.111 Uiso 1 1 calc R . . 
C15 C 0.052(2) 0.9006(12) 0.3723(7) 0.147(10) Uani 1 1 d . . . 
H15A H 0.1128 0.8991 0.4090 0.176 Uiso 1 1 calc R . . 
C16 C -0.057(2) 0.8475(9) 0.3677(7) 0.096(6) Uani 1 1 d . . . 
H16A H -0.0666 0.8062 0.3990 0.116 Uiso 1 1 calc R . . 
C17 C -0.1430(15) 0.8578(9) 0.3186(7) 0.076(4) Uani 1 1 d . . . 
H17A H -0.2189 0.8263 0.3175 0.091 Uiso 1 1 calc R . . 
C18 C -0.1328(12) 0.9094(9) 0.2692(6) 0.068(4) Uani 1 1 d . . . 
H18A H -0.1968 0.9094 0.2339 0.081 Uiso 1 1 calc R . . 
C19 C 0.1321(10) 1.0988(7) 0.2265(5) 0.039(2) Uani 1 1 d . . . 
C20 C 0.2344(12) 1.0930(8) 0.1962(6) 0.059(3) Uani 1 1 d . . . 
H20A H 0.2301 1.0570 0.1605 0.071 Uiso 1 1 calc R . . 
C21 C 0.3477(13) 1.1400(10) 0.2167(7) 0.078(4) Uani 1 1 d . . . 
H21A H 0.4187 1.1344 0.1959 0.094 Uiso 1 1 calc R . . 
C22 C 0.3510(15) 1.1951(10) 0.2692(7) 0.082(5) Uani 1 1 d . . . 
H22A H 0.4259 1.2258 0.2839 0.098 Uiso 1 1 calc R . . 
C23 C 0.2459(14) 1.2055(10) 0.2999(7) 0.082(5) Uani 1 1 d . . . 
H23A H 0.2476 1.2435 0.3343 0.099 Uiso 1 1 calc R . . 
C24 C 0.1372(12) 1.1564(8) 0.2771(5) 0.056(3) Uani 1 1 d . . . 
H24A H 0.0648 1.1627 0.2968 0.067 Uiso 1 1 calc R . . 
C25 C -0.1480(9) 1.1127(6) 0.2008(5) 0.037(2) Uani 1 1 d . . . 
H25A H -0.1971 1.0982 0.2344 0.044 Uiso 1 1 calc R . . 
H25B H -0.1166 1.1726 0.2073 0.044 Uiso 1 1 calc R . . 
N1 N 0.3361(13) 0.5642(8) 0.0846(6) 0.076(3) Uani 1 1 d . . . 
O1 O 0.3337(11) 0.6177(9) 0.1828(5) 0.115(4) Uani 1 1 d . . . 
C26 C 0.4680(18) 0.5901(13) 0.0844(11) 0.139(8) Uani 1 1 d . . . 
H26A H 0.4946 0.5720 0.0452 0.208 Uiso 1 1 calc R . . 
H26B H 0.5217 0.5624 0.1194 0.208 Uiso 1 1 calc R . . 
H26C H 0.4753 0.6529 0.0885 0.208 Uiso 1 1 calc R . . 
C27 C 0.269(2) 0.5244(10) 0.0274(9) 0.144(9) Uani 1 1 d . . . 
H27A H 0.3264 0.5166 -0.0029 0.217 Uiso 1 1 calc R . . 
H27B H 0.1992 0.5620 0.0096 0.217 Uiso 1 1 calc R . . 
H27C H 0.2351 0.4682 0.0375 0.217 Uiso 1 1 calc R . . 
C28 C 0.2822(17) 0.5839(11) 0.1360(9) 0.088(5) Uani 1 1 d . . . 
H28B H 0.1961 0.5695 0.1346 0.105 Uiso 1 1 calc R . . 

loop_ 
_atom_site_aniso_label 
_atom_site_aniso_U_11 
_atom_site_aniso_U_22 
_atom_site_aniso_U_33 
_atom_site_aniso_U_23 
_atom_site_aniso_U_13 
_atom_site_aniso_U_12 
W1 0.0429(2) 0.0257(2) 0.0294(2) 0.00043(18) 0.01130(16) 0.0004(2) 
Pd1 0.0385(4) 0.0274(4) 0.0263(4) 0.0007(3) 0.0097(3) 0.0056(4) 
Pd2 0.0369(4) 0.0320(4) 0.0288(4) 0.0043(3) 0.0124(3) 0.0077(4) 
Se1 0.0335(5) 0.0400(6) 0.0271(5) -0.0005(4) 0.0074(4) 0.0066(5) 
Se2 0.0591(7) 0.0342(6) 0.0290(5) 0.0028(4) 0.0052(5) 0.0092(6) 
Se3 0.0503(7) 0.0385(6) 0.0446(6) 0.0095(5) 0.0187(5) 0.0164(5) 
Se4 0.0968(11) 0.0538(8) 0.0672(9) -0.0073(7) 0.0223(8) -0.0269(8) 
P1 0.0395(15) 0.0423(16) 0.0348(14) 0.0067(12) 0.0165(12) 0.0113(14) 
P2 0.0393(15) 0.0304(14) 0.0308(13) -0.0014(11) 0.0107(11) 0.0033(13) 
C1 0.035(6) 0.050(7) 0.044(6) 0.008(5) 0.016(5) 0.011(5) 
C2 0.051(8) 0.080(10) 0.056(7) -0.023(7) 0.020(6) -0.005(7) 
C3 0.071(10) 0.102(13) 0.101(12) -0.020(10) 0.020(9) -0.038(10) 
C4 0.059(9) 0.072(10) 0.100(12) 0.023(9) 0.014(9) -0.022(8) 
C5 0.056(8) 0.080(10) 0.064(8) 0.013(8) 0.026(7) -0.013(8) 
C6 0.053(8) 0.081(10) 0.044(7) 0.004(7) 0.009(6) -0.003(7) 
C7 0.072(9) 0.056(8) 0.046(7) 0.023(6) 0.040(6) 0.027(7) 
C8 0.054(9) 0.082(11) 0.116(12) 0.039(9) 0.025(8) 0.044(8) 
C9 0.064(11) 0.144(18) 0.15(2) 0.058(16) 0.038(11) 0.054(14) 
C10 0.130(19) 0.15(2) 0.131(19) 0.058(16) 0.078(15) 0.109(18) 
C11 0.18(2) 0.090(13) 0.096(14) 0.002(11) 0.032(14) 0.085(15) 
C12 0.125(14) 0.082(11) 0.058(9) 0.013(8) 0.006(9) 0.058(10) 
C13 0.052(7) 0.032(5) 0.022(5) 0.001(4) 0.012(4) 0.001(5) 
C14 0.114(13) 0.088(11) 0.062(9) 0.030(8) -0.030(9) -0.017(10) 
C15 0.26(3) 0.096(14) 0.051(10) 0.026(10) -0.077(14) -0.033(16) 
C16 0.21(2) 0.045(9) 0.046(8) 0.012(7) 0.046(11) 0.019(11) 
C17 0.091(11) 0.078(11) 0.063(9) 0.038(8) 0.032(8) -0.004(9) 
C18 0.051(8) 0.085(10) 0.066(8) 0.027(8) 0.005(7) 0.009(8) 
C19 0.044(6) 0.040(6) 0.035(5) -0.011(5) 0.014(5) 0.001(5) 
C20 0.060(8) 0.053(8) 0.072(8) -0.016(7) 0.032(7) -0.006(7) 
C21 0.051(8) 0.083(11) 0.111(12) -0.013(10) 0.042(8) -0.011(8) 
C22 0.079(11) 0.075(11) 0.094(11) -0.013(9) 0.019(9) -0.029(9) 
C23 0.081(10) 0.078(10) 0.087(10) -0.046(9) 0.009(9) -0.016(9) 
C24 0.058(8) 0.054(8) 0.061(8) -0.017(6) 0.024(6) 0.001(7) 
C25 0.034(6) 0.034(6) 0.045(6) 0.002(5) 0.012(5) 0.015(5) 
N1 0.095(10) 0.061(8) 0.067(8) -0.007(6) -0.001(7) 0.006(7) 
O1 0.100(9) 0.175(13) 0.069(7) 0.019(8) 0.009(7) 0.008(9) 
C26 0.099(16) 0.127(18) 0.20(2) -0.014(16) 0.039(15) 0.008(14) 
C27 0.24(3) 0.059(11) 0.122(16) 0.010(11) -0.017(17) 0.016(14) 
C28 0.088(13) 0.089(12) 0.086(12) 0.022(10) 0.013(11) 0.009(10) 

_geom_special_details 
; 
All esds (except the esd in the dihedral angle between two l.s. planes) 
are estimated using the full covariance matrix.  The cell esds are taken 
into account individually in the estimation of esds in distances, angles 
and torsion angles; correlations between esds in cell parameters are only 
used when they are defined by crystal symmetry.  An approximate (isotropic) 
treatment of cell esds is used for estimating esds involving l.s. planes. 
; 

loop_ 
_geom_bond_atom_site_label_1 
_geom_bond_atom_site_label_2 
_geom_bond_distance 
_geom_bond_site_symmetry_2 
_geom_bond_publ_flag 
W1 Se4 2.2699(14) . ? 
W1 Se2 2.3376(10) . ? 
W1 Se3 2.3420(12) . ? 
W1 Se1 2.4149(10) . ? 
W1 Pd1 2.9382(8) . ? 
W1 Pd2 2.9496(8) . ? 
Pd1 P2 2.283(3) . ? 
Pd1 Se1 2.4668(11) . ? 
Pd1 Se2 2.4899(12) . ? 
Pd1 Pd2 2.6346(10) 3_575 ? 
Pd2 P1 2.272(3) . ? 
Pd2 Se1 2.4652(12) . ? 
Pd2 Se3 2.4735(12) . ? 
Pd2 Pd1 2.6346(10) 3_575 ? 
P1 C1 1.818(11) . ? 
P1 C7 1.831(12) . ? 
P1 C25 1.832(10) 3_575 ? 
P2 C19 1.811(11) . ? 
P2 C13 1.840(9) . ? 
P2 C25 1.861(9) . ? 
C1 C6 1.359(14) . ? 
C1 C2 1.403(15) . ? 
C2 C3 1.364(17) . ? 
C3 C4 1.367(19) . ? 
C4 C5 1.353(18) . ? 
C5 C6 1.361(16) . ? 
C7 C8 1.371(17) . ? 
C7 C12 1.372(18) . ? 
C8 C9 1.42(2) . ? 
C9 C10 1.34(3) . ? 
C10 C11 1.35(3) . ? 
C11 C12 1.44(2) . ? 
C13 C14 1.370(15) . ? 
C13 C18 1.398(15) . ? 
C14 C15 1.44(2) . ? 
C15 C16 1.40(2) . ? 
C16 C17 1.287(19) . ? 
C17 C18 1.327(16) . ? 
C19 C20 1.342(15) . ? 
C19 C24 1.380(14) . ? 
C20 C21 1.404(16) . ? 
C21 C22 1.390(18) . ? 
C22 C23 1.38(2) . ? 
C23 C24 1.391(16) . ? 
C25 P1 1.832(10) 3_575 ? 
N1 C28 1.340(19) . ? 
N1 C27 1.446(18) . ? 
N1 C26 1.45(2) . ? 
O1 C28 1.176(18) . ? 

loop_ 
_geom_angle_atom_site_label_1 
_geom_angle_atom_site_label_2 
_geom_angle_atom_site_label_3 
_geom_angle 
_geom_angle_site_symmetry_1 
_geom_angle_site_symmetry_3 
_geom_angle_publ_flag 
Se4 W1 Se2 110.25(5) . . ? 
Se4 W1 Se3 110.66(5) . . ? 
Se2 W1 Se3 109.47(4) . . ? 
Se4 W1 Se1 110.01(5) . . ? 
Se2 W1 Se1 108.68(4) . . ? 
Se3 W1 Se1 107.71(4) . . ? 
Se4 W1 Pd1 127.72(5) . . ? 
Se2 W1 Pd1 54.91(3) . . ? 
Se3 W1 Pd1 121.58(3) . . ? 
Se1 W1 Pd1 53.81(3) . . ? 
Se4 W1 Pd2 129.62(4) . . ? 
Se2 W1 Pd2 120.12(3) . . ? 
Se3 W1 Pd2 54.28(3) . . ? 
Se1 W1 Pd2 53.60(3) . . ? 
Pd1 W1 Pd2 83.97(2) . . ? 
P2 Pd1 Se1 163.56(8) . . ? 
P2 Pd1 Se2 92.04(7) . . ? 
Se1 Pd1 Se2 102.35(4) . . ? 
P2 Pd1 Pd2 88.03(7) . 3_575 ? 
Se1 Pd1 Pd2 78.73(3) . 3_575 ? 
Se2 Pd1 Pd2 172.49(5) . 3_575 ? 
P2 Pd1 W1 141.82(7) . . ? 
Se1 Pd1 W1 52.19(3) . . ? 
Se2 Pd1 W1 50.19(3) . . ? 
Pd2 Pd1 W1 130.15(3) 3_575 . ? 
P1 Pd2 Se1 160.11(8) . . ? 
P1 Pd2 Se3 93.87(8) . . ? 
Se1 Pd2 Se3 102.13(4) . . ? 
P1 Pd2 Pd1 83.61(7) . 3_575 ? 
Se1 Pd2 Pd1 81.25(4) . 3_575 ? 
Se3 Pd2 Pd1 175.03(5) . 3_575 ? 
P1 Pd2 W1 143.43(7) . . ? 
Se1 Pd2 W1 52.04(3) . . ? 
Se3 Pd2 W1 50.24(3) . . ? 
Pd1 Pd2 W1 132.74(3) 3_575 . ? 
W1 Se1 Pd2 74.36(3) . . ? 
W1 Se1 Pd1 74.00(3) . . ? 
Pd2 Se1 Pd1 106.00(4) . . ? 
W1 Se2 Pd1 74.91(3) . . ? 
W1 Se3 Pd2 75.49(4) . . ? 
C1 P1 C7 101.2(5) . . ? 
C1 P1 C25 105.6(5) . 3_575 ? 
C7 P1 C25 103.7(5) . 3_575 ? 
C1 P1 Pd2 120.9(4) . . ? 
C7 P1 Pd2 117.3(3) . . ? 
C25 P1 Pd2 106.5(3) 3_575 . ? 
C19 P2 C13 104.3(5) . . ? 
C19 P2 C25 105.9(5) . . ? 
C13 P2 C25 102.9(5) . . ? 
C19 P2 Pd1 116.0(3) . . ? 
C13 P2 Pd1 114.4(3) . . ? 
C25 P2 Pd1 112.1(3) . . ? 
C6 C1 C2 116.5(11) . . ? 
C6 C1 P1 121.5(10) . . ? 
C2 C1 P1 121.9(8) . . ? 
C3 C2 C1 121.3(12) . . ? 
C2 C3 C4 119.9(15) . . ? 
C5 C4 C3 119.5(14) . . ? 
C4 C5 C6 120.6(12) . . ? 
C1 C6 C5 122.2(13) . . ? 
C8 C7 C12 119.3(12) . . ? 
C8 C7 P1 119.2(11) . . ? 
C12 C7 P1 121.4(11) . . ? 
C7 C8 C9 120.6(17) . . ? 
C10 C9 C8 119(2) . . ? 
C9 C10 C11 122.1(19) . . ? 
C10 C11 C12 118.9(18) . . ? 
C7 C12 C11 119.7(16) . . ? 
C14 C13 C18 119.0(11) . . ? 
C14 C13 P2 121.1(10) . . ? 
C18 C13 P2 119.7(8) . . ? 
C13 C14 C15 117.2(15) . . ? 
C16 C15 C14 120.5(13) . . ? 
C17 C16 C15 117.4(13) . . ? 
C16 C17 C18 125.5(15) . . ? 
C17 C18 C13 119.9(12) . . ? 
C20 C19 C24 118.4(11) . . ? 
C20 C19 P2 121.5(8) . . ? 
C24 C19 P2 120.0(9) . . ? 
C19 C20 C21 121.8(12) . . ? 
C22 C21 C20 118.2(13) . . ? 
C23 C22 C21 121.6(13) . . ? 
C22 C23 C24 117.0(13) . . ? 
C19 C24 C23 122.9(12) . . ? 
P1 C25 P2 107.2(5) 3_575 . ? 
C28 N1 C27 124.2(17) . . ? 
C28 N1 C26 118.0(15) . . ? 
C27 N1 C26 117.6(16) . . ? 
O1 C28 N1 126.0(18) . . ? 

_diffrn_measured_fraction_theta_max    0.988 
_diffrn_reflns_theta_full              28.30 
_diffrn_measured_fraction_theta_full   0.988 
_refine_diff_density_max    2.392 
_refine_diff_density_min   -1.738 
_refine_diff_density_rms    0.294 

data_W-Se-Pd-dppe cluster 

_database_code_CSD	174697


_audit_creation_method            SHELXL-97 
_chemical_name_systematic 
; 
? 
; 
_chemical_name_common             ? 
_chemical_melting_point           ? 
_chemical_formula_moiety          ? 
_chemical_formula_sum 
'C26 H24 P2 Pd Se4 W' 
_chemical_formula_weight          1004.48 

loop_ 
_atom_type_symbol 
_atom_type_description 
_atom_type_scat_dispersion_real 
_atom_type_scat_dispersion_imag 
_atom_type_scat_source 
'C'  'C'   0.0033   0.0016 
'International Tables Vol C Tables 4.2.6.8 and 6.1.1.4' 
'H'  'H'   0.0000   0.0000 
'International Tables Vol C Tables 4.2.6.8 and 6.1.1.4' 
'P'  'P'   0.1023   0.0942 
'International Tables Vol C Tables 4.2.6.8 and 6.1.1.4' 
'Se'  'Se'  -0.0929   2.2259 
'International Tables Vol C Tables 4.2.6.8 and 6.1.1.4' 
'Pd'  'Pd'  -0.9988   1.0072 
'International Tables Vol C Tables 4.2.6.8 and 6.1.1.4' 
'W'  'W'  -0.8490   6.8722 
'International Tables Vol C Tables 4.2.6.8 and 6.1.1.4' 

_symmetry_cell_setting            Triclinic
_symmetry_space_group_name_H-M    P-1

loop_ 
_symmetry_equiv_pos_as_xyz 
'x, y, z' 
'-x, -y, -z' 

_cell_length_a                    9.3350(5) 
_cell_length_b                    10.6129(6) 
_cell_length_c                    15.6580(9) 
_cell_angle_alpha                 82.7280(10) 
_cell_angle_beta                  76.9780(10) 
_cell_angle_gamma                 79.7350(10) 
_cell_volume                      1481.12(14) 
_cell_formula_units_Z             2 
_cell_measurement_temperature     293(2) 
_cell_measurement_reflns_used     ? 
_cell_measurement_theta_min       ? 
_cell_measurement_theta_max       ? 

_exptl_crystal_description        block
_exptl_crystal_colour             'dark-red'
_exptl_crystal_size_max           0.32 
_exptl_crystal_size_mid           0.20
_exptl_crystal_size_min           0.16
_exptl_crystal_density_meas       ? 
_exptl_crystal_density_diffrn     2.252 
_exptl_crystal_density_method     'not measured' 
_exptl_crystal_F_000              932 
_exptl_absorpt_coefficient_mu     9.524 
_exptl_absorpt_correction_type    ? 
_exptl_absorpt_correction_T_min   ? 
_exptl_absorpt_correction_T_max   ? 
_exptl_absorpt_process_details    ? 

_exptl_special_details 
; 
? 
; 

_diffrn_ambient_temperature       293(2) 
_diffrn_radiation_wavelength      0.71073 
_diffrn_radiation_type            MoK\a 
_diffrn_radiation_source          'fine-focus sealed tube' 
_diffrn_radiation_monochromator   graphite 
_diffrn_measurement_device_type   'Smart CCD' 
_diffrn_measurement_method        ? 
_diffrn_detector_area_resol_mean  ? 
_diffrn_standards_number          ? 
_diffrn_standards_interval_count  ? 
_diffrn_standards_interval_time   ? 
_diffrn_standards_decay_%         ? 
_diffrn_reflns_number             8583 
_diffrn_reflns_av_R_equivalents   0.0208 
_diffrn_reflns_av_sigmaI/netI     0.0215 
_diffrn_reflns_limit_h_min        -5 
_diffrn_reflns_limit_h_max        12 
_diffrn_reflns_limit_k_min        -13 
_diffrn_reflns_limit_k_max        13 
_diffrn_reflns_limit_l_min        -19 
_diffrn_reflns_limit_l_max        20 
_diffrn_reflns_theta_min          1.96 
_diffrn_reflns_theta_max          27.50 
_reflns_number_total              6279 
_reflns_number_gt                 5569 
_reflns_threshold_expression      >2sigma(I) 

_computing_data_collection        ? 
_computing_cell_refinement        ? 
_computing_data_reduction         SAINT 
_computing_structure_solution     'SHELXS-97 (Sheldrick, 1990)' 
_computing_structure_refinement   'SHELXL-97 (Sheldrick, 1997)' 
_computing_molecular_graphics     ? 
_computing_publication_material   ? 

_refine_special_details 
; 
Refinement of F^2^ against ALL reflections.  The weighted R-factor wR and 
goodness of fit S are based on F^2^, conventional R-factors R are based 
on F, with F set to zero for negative F^2^. The threshold expression of 
F^2^ > 2sigma(F^2^) is used only for calculating R-factors(gt) etc. and is 
not relevant to the choice of reflections for refinement.  R-factors based 
on F^2^ are statistically about twice as large as those based on F, and R- 
factors based on ALL data will be even larger. 
; 

_refine_ls_structure_factor_coef  Fsqd  
_refine_ls_matrix_type            full 
_refine_ls_weighting_scheme       calc  
_refine_ls_weighting_details 
'calc w=1/[\s^2^(Fo^2^)+(0.0681P)^2^+2.1312P] where P=(Fo^2^+2Fc^2^)/3' 
_atom_sites_solution_primary      direct 
_atom_sites_solution_secondary    difmap 
_atom_sites_solution_hydrogens    geom 
_refine_ls_hydrogen_treatment     mixed 
_refine_ls_extinction_method      none 
_refine_ls_extinction_coef        ? 
_refine_ls_number_reflns          6279 
_refine_ls_number_parameters      307 
_refine_ls_number_restraints      0 
_refine_ls_R_factor_all           0.0414 
_refine_ls_R_factor_gt            0.0364 
_refine_ls_wR_factor_ref          0.1045 
_refine_ls_wR_factor_gt           0.1002 
_refine_ls_goodness_of_fit_ref    1.020 
_refine_ls_restrained_S_all       1.020 
_refine_ls_shift/su_max           0.001 
_refine_ls_shift/su_mean          0.000 

loop_ 
_atom_site_label 
_atom_site_type_symbol 
_atom_site_fract_x 
_atom_site_fract_y 
_atom_site_fract_z 
_atom_site_U_iso_or_equiv 
_atom_site_adp_type 
_atom_site_occupancy 
_atom_site_symmetry_multiplicity 
_atom_site_calc_flag 
_atom_site_refinement_flags 
_atom_site_disorder_assembly 
_atom_site_disorder_group 
Pd1 Pd 0.25736(4) 0.92730(3) 0.25141(2) 0.03369(10) Uani 1 1 d . . . 
W1 W 0.27412(3) 1.205004(19) 0.242194(15) 0.04447(9) Uani 1 1 d . . . 
P1 P 0.37175(14) 0.75858(12) 0.17148(8) 0.0352(3) Uani 1 1 d . . . 
P2 P 0.11384(15) 0.78717(13) 0.33682(8) 0.0371(3) Uani 1 1 d . . . 
Se1 Se 0.14504(10) 1.36275(6) 0.16475(6) 0.0761(2) Uani 1 1 d . . . 
Se2 Se 0.41888(10) 1.29173(7) 0.31061(6) 0.0757(2) Uani 1 1 d . . . 
Se3 Se 0.10618(9) 1.09228(6) 0.34540(5) 0.0664(2) Uani 1 1 d . . . 
Se4 Se 0.42616(6) 1.05589(5) 0.14718(4) 0.04532(14) Uani 1 1 d . . . 
C1 C 0.3110(5) 0.7652(5) 0.0684(3) 0.0403(10) Uani 1 1 d . . . 
C2 C 0.2278(7) 0.8730(6) 0.0358(4) 0.0522(13) Uani 1 1 d . . . 
H2 H 0.2022 0.9457 0.0668 0.063 Uiso 1 1 calc R . . 
C3 C 0.1809(8) 0.8753(8) -0.0431(5) 0.0682(18) Uani 1 1 d . . . 
H3 H 0.1266 0.9495 -0.0652 0.082 Uiso 1 1 calc R . . 
C4 C 0.2160(9) 0.7661(10) -0.0881(5) 0.078(2) Uani 1 1 d . . . 
H4 H 0.1837 0.7663 -0.1401 0.094 Uiso 1 1 calc R . . 
C5 C 0.2990(10) 0.6564(9) -0.0558(5) 0.084(2) Uani 1 1 d . . . 
H5 H 0.3230 0.5832 -0.0863 0.101 Uiso 1 1 calc R . . 
C6 C 0.3462(8) 0.6560(7) 0.0219(5) 0.0668(18) Uani 1 1 d . . . 
H6 H 0.4019 0.5822 0.0435 0.080 Uiso 1 1 calc R . . 
C7 C 0.5723(6) 0.7203(5) 0.1468(3) 0.0395(10) Uani 1 1 d . . . 
C8 C 0.6548(7) 0.7695(7) 0.0688(4) 0.0619(17) Uani 1 1 d . . . 
H8 H 0.6062 0.8222 0.0286 0.074 Uiso 1 1 calc R . . 
C9 C 0.8087(7) 0.7413(8) 0.0498(4) 0.0656(18) Uani 1 1 d . . . 
H9 H 0.8627 0.7754 -0.0027 0.079 Uiso 1 1 calc R . . 
C10 C 0.8810(7) 0.6635(7) 0.1081(5) 0.0622(16) Uani 1 1 d . . . 
H10 H 0.9843 0.6434 0.0950 0.075 Uiso 1 1 calc R . . 
C11 C 0.8031(8) 0.6160(8) 0.1845(5) 0.075(2) Uani 1 1 d . . . 
H11 H 0.8531 0.5628 0.2239 0.090 Uiso 1 1 calc R . . 
C12 C 0.6475(7) 0.6452(7) 0.2058(4) 0.0613(17) Uani 1 1 d . . . 
H12 H 0.5952 0.6138 0.2598 0.074 Uiso 1 1 calc R . . 
C13 C 0.3084(6) 0.6145(5) 0.2353(4) 0.0426(11) Uani 1 1 d . . . 
H13A H 0.3265 0.5450 0.1976 0.051 Uiso 1 1 calc R . . 
H13B H 0.3624 0.5873 0.2823 0.051 Uiso 1 1 calc R . . 
C14 C 0.1412(6) 0.6469(5) 0.2739(4) 0.0434(11) Uani 1 1 d . . . 
H14A H 0.1061 0.5745 0.3121 0.052 Uiso 1 1 calc R . . 
H14B H 0.0860 0.6664 0.2271 0.052 Uiso 1 1 calc R . . 
C15 C 0.1705(6) 0.7249(5) 0.4394(3) 0.0428(11) Uani 1 1 d . . . 
C16 C 0.1634(13) 0.6004(8) 0.4736(6) 0.101(4) Uani 1 1 d . . . 
H16 H 0.1265 0.5460 0.4447 0.121 Uiso 1 1 calc R . . 
C17 C 0.2111(16) 0.5544(9) 0.5515(7) 0.123(5) Uani 1 1 d . . . 
H17 H 0.2094 0.4687 0.5728 0.147 Uiso 1 1 calc R . . 
C18 C 0.2607(10) 0.6345(10) 0.5975(5) 0.089(3) Uani 1 1 d . . . 
H18 H 0.2899 0.6040 0.6503 0.106 Uiso 1 1 calc R . . 
C19 C 0.2662(9) 0.7577(8) 0.5648(5) 0.0707(19) Uani 1 1 d . . . 
H19 H 0.3011 0.8119 0.5949 0.085 Uiso 1 1 calc R . . 
C20 C 0.2201(8) 0.8052(7) 0.4861(4) 0.0578(15) Uani 1 1 d . . . 
H20 H 0.2228 0.8909 0.4651 0.069 Uiso 1 1 calc R . . 
C21 C -0.0854(6) 0.8377(5) 0.3583(3) 0.0417(11) Uani 1 1 d . . . 
C22 C -0.1786(7) 0.8137(7) 0.4389(4) 0.0614(16) Uani 1 1 d . . . 
H22 H -0.1405 0.7708 0.4865 0.074 Uiso 1 1 calc R . . 
C23 C -0.3324(8) 0.8557(9) 0.4471(6) 0.084(2) Uani 1 1 d . . . 
H23 H -0.3962 0.8405 0.5009 0.101 Uiso 1 1 calc R . . 
C24 C -0.3892(8) 0.9176(9) 0.3784(6) 0.079(2) Uani 1 1 d . . . 
H24 H -0.4913 0.9442 0.3853 0.095 Uiso 1 1 calc R . . 
C25 C -0.2995(8) 0.9408(8) 0.3004(5) 0.073(2) Uani 1 1 d . . . 
H25 H -0.3397 0.9827 0.2533 0.087 Uiso 1 1 calc R . . 
C26 C -0.1474(7) 0.9031(7) 0.2895(4) 0.0615(16) Uani 1 1 d . . . 
H26 H -0.0860 0.9216 0.2354 0.074 Uiso 1 1 calc R . . 

loop_ 
_atom_site_aniso_label 
_atom_site_aniso_U_11 
_atom_site_aniso_U_22 
_atom_site_aniso_U_33 
_atom_site_aniso_U_23 
_atom_site_aniso_U_13 
_atom_site_aniso_U_12 
Pd1 0.03719(19) 0.02644(19) 0.03660(19) -0.00477(14) -0.00377(15) -0.00634(14) 
W1 0.05654(15) 0.02738(12) 0.05488(15) -0.00393(9) -0.02213(11) -0.00711(9) 
P1 0.0357(6) 0.0284(6) 0.0400(6) -0.0047(5) -0.0058(5) -0.0024(5) 
P2 0.0391(6) 0.0359(6) 0.0377(6) -0.0033(5) -0.0057(5) -0.0123(5) 
Se1 0.1004(6) 0.0387(3) 0.1049(6) -0.0111(3) -0.0652(5) 0.0068(3) 
Se2 0.1102(6) 0.0441(4) 0.0960(5) 0.0033(3) -0.0679(5) -0.0206(4) 
Se3 0.0762(4) 0.0426(3) 0.0711(4) -0.0249(3) 0.0171(3) -0.0122(3) 
Se4 0.0476(3) 0.0361(3) 0.0497(3) 0.0029(2) -0.0042(2) -0.0119(2) 
C1 0.035(2) 0.044(3) 0.042(2) -0.008(2) -0.008(2) -0.006(2) 
C2 0.052(3) 0.052(3) 0.054(3) -0.008(3) -0.015(3) -0.006(3) 
C3 0.060(4) 0.086(5) 0.063(4) 0.000(4) -0.028(3) -0.008(4) 
C4 0.072(5) 0.123(7) 0.051(4) -0.019(4) -0.016(3) -0.033(5) 
C5 0.095(6) 0.094(6) 0.072(5) -0.044(4) -0.027(4) -0.001(5) 
C6 0.078(5) 0.062(4) 0.063(4) -0.027(3) -0.022(3) 0.008(3) 
C7 0.038(2) 0.033(2) 0.048(3) -0.010(2) -0.008(2) -0.0016(19) 
C8 0.046(3) 0.085(5) 0.047(3) 0.010(3) -0.007(3) -0.005(3) 
C9 0.049(3) 0.091(5) 0.051(3) -0.003(3) -0.001(3) -0.009(3) 
C10 0.036(3) 0.071(4) 0.077(4) -0.015(3) -0.010(3) 0.002(3) 
C11 0.051(4) 0.084(5) 0.087(5) 0.019(4) -0.029(4) -0.005(3) 
C12 0.046(3) 0.079(5) 0.058(3) 0.015(3) -0.016(3) -0.015(3) 
C13 0.051(3) 0.023(2) 0.052(3) -0.006(2) -0.006(2) -0.007(2) 
C14 0.044(3) 0.041(3) 0.047(3) -0.008(2) -0.004(2) -0.016(2) 
C15 0.042(3) 0.046(3) 0.041(3) 0.000(2) -0.009(2) -0.012(2) 
C16 0.173(10) 0.070(5) 0.091(6) 0.027(4) -0.082(7) -0.059(6) 
C17 0.222(14) 0.075(6) 0.105(7) 0.042(5) -0.096(9) -0.068(8) 
C18 0.100(6) 0.107(7) 0.073(5) 0.027(5) -0.050(5) -0.036(5) 
C19 0.075(5) 0.084(5) 0.064(4) -0.017(4) -0.030(4) -0.012(4) 
C20 0.068(4) 0.060(4) 0.050(3) -0.006(3) -0.018(3) -0.012(3) 
C21 0.042(3) 0.042(3) 0.041(3) -0.011(2) -0.004(2) -0.010(2) 
C22 0.053(3) 0.081(5) 0.046(3) -0.001(3) 0.000(3) -0.015(3) 
C23 0.048(4) 0.112(7) 0.079(5) -0.010(5) 0.016(4) -0.012(4) 
C24 0.048(4) 0.088(6) 0.097(6) -0.014(5) -0.010(4) 0.002(4) 
C25 0.059(4) 0.090(6) 0.070(4) -0.008(4) -0.024(4) 0.002(4) 
C26 0.050(3) 0.080(5) 0.050(3) -0.002(3) -0.008(3) -0.004(3) 

_geom_special_details 
; 
All esds (except the esd in the dihedral angle between two l.s. planes) 
are estimated using the full covariance matrix.  The cell esds are taken 
into account individually in the estimation of esds in distances, angles 
and torsion angles; correlations between esds in cell parameters are only 
used when they are defined by crystal symmetry.  An approximate (isotropic) 
treatment of cell esds is used for estimating esds involving l.s. planes. 
; 

loop_ 
_geom_bond_atom_site_label_1 
_geom_bond_atom_site_label_2 
_geom_bond_distance 
_geom_bond_site_symmetry_2 
_geom_bond_publ_flag 
Pd1 P2 2.2790(13) . ? 
Pd1 P1 2.2796(13) . ? 
Pd1 Se4 2.4603(6) . ? 
Pd1 Se3 2.4615(7) . ? 
Pd1 W1 2.9628(4) . ? 
W1 Se1 2.2695(7) . ? 
W1 Se2 2.2729(7) . ? 
W1 Se3 2.3533(7) . ? 
W1 Se4 2.3613(6) . ? 
P1 C7 1.806(5) . ? 
P1 C1 1.816(5) . ? 
P1 C13 1.832(5) . ? 
P2 C21 1.808(5) . ? 
P2 C15 1.813(5) . ? 
P2 C14 1.836(5) . ? 
C1 C2 1.374(8) . ? 
C1 C6 1.396(8) . ? 
C2 C3 1.397(9) . ? 
C3 C4 1.384(11) . ? 
C4 C5 1.384(12) . ? 
C5 C6 1.385(10) . ? 
C7 C12 1.374(8) . ? 
C7 C8 1.383(8) . ? 
C8 C9 1.386(9) . ? 
C9 C10 1.363(10) . ? 
C10 C11 1.342(10) . ? 
C11 C12 1.402(9) . ? 
C13 C14 1.536(7) . ? 
C15 C16 1.369(9) . ? 
C15 C20 1.389(8) . ? 
C16 C17 1.393(11) . ? 
C17 C18 1.379(13) . ? 
C18 C19 1.348(11) . ? 
C19 C20 1.400(9) . ? 
C21 C22 1.385(8) . ? 
C21 C26 1.388(8) . ? 
C22 C23 1.407(10) . ? 
C23 C24 1.350(12) . ? 
C24 C25 1.337(11) . ? 
C25 C26 1.382(9) . ? 

loop_ 
_geom_angle_atom_site_label_1 
_geom_angle_atom_site_label_2 
_geom_angle_atom_site_label_3 
_geom_angle 
_geom_angle_site_symmetry_1 
_geom_angle_site_symmetry_3 
_geom_angle_publ_flag 
P2 Pd1 P1 86.30(5) . . ? 
P2 Pd1 Se4 172.65(4) . . ? 
P1 Pd1 Se4 86.37(4) . . ? 
P2 Pd1 Se3 86.31(4) . . ? 
P1 Pd1 Se3 172.22(4) . . ? 
Se4 Pd1 Se3 100.98(2) . . ? 
P2 Pd1 W1 136.70(4) . . ? 
P1 Pd1 W1 136.90(4) . . ? 
Se4 Pd1 W1 50.592(15) . . ? 
Se3 Pd1 W1 50.391(18) . . ? 
Se1 W1 Se2 109.89(3) . . ? 
Se1 W1 Se3 109.34(3) . . ? 
Se2 W1 Se3 110.74(3) . . ? 
Se1 W1 Se4 110.18(3) . . ? 
Se2 W1 Se4 109.36(3) . . ? 
Se3 W1 Se4 107.30(2) . . ? 
Se1 W1 Pd1 124.91(2) . . ? 
Se2 W1 Pd1 125.20(2) . . ? 
Se3 W1 Pd1 53.692(17) . . ? 
Se4 W1 Pd1 53.611(15) . . ? 
C7 P1 C1 106.9(2) . . ? 
C7 P1 C13 104.8(2) . . ? 
C1 P1 C13 104.4(3) . . ? 
C7 P1 Pd1 120.13(17) . . ? 
C1 P1 Pd1 112.87(18) . . ? 
C13 P1 Pd1 106.37(17) . . ? 
C21 P2 C15 109.2(2) . . ? 
C21 P2 C14 103.7(2) . . ? 
C15 P2 C14 105.3(3) . . ? 
C21 P2 Pd1 117.06(18) . . ? 
C15 P2 Pd1 114.31(17) . . ? 
C14 P2 Pd1 105.95(17) . . ? 
W1 Se3 Pd1 75.92(2) . . ? 
W1 Se4 Pd1 75.798(19) . . ? 
C2 C1 C6 118.7(5) . . ? 
C2 C1 P1 122.2(4) . . ? 
C6 C1 P1 119.1(4) . . ? 
C1 C2 C3 121.1(6) . . ? 
C4 C3 C2 119.4(7) . . ? 
C3 C4 C5 120.2(6) . . ? 
C4 C5 C6 119.8(7) . . ? 
C5 C6 C1 120.8(7) . . ? 
C12 C7 C8 118.2(5) . . ? 
C12 C7 P1 121.1(4) . . ? 
C8 C7 P1 120.7(4) . . ? 
C7 C8 C9 120.9(6) . . ? 
C10 C9 C8 120.0(6) . . ? 
C11 C10 C9 119.9(6) . . ? 
C10 C11 C12 121.0(6) . . ? 
C7 C12 C11 119.9(6) . . ? 
C14 C13 P1 108.3(4) . . ? 
C13 C14 P2 107.6(3) . . ? 
C16 C15 C20 118.4(6) . . ? 
C16 C15 P2 121.8(5) . . ? 
C20 C15 P2 119.7(4) . . ? 
C15 C16 C17 120.5(7) . . ? 
C18 C17 C16 120.8(8) . . ? 
C19 C18 C17 119.0(7) . . ? 
C18 C19 C20 121.1(7) . . ? 
C15 C20 C19 120.2(6) . . ? 
C22 C21 C26 118.7(6) . . ? 
C22 C21 P2 123.6(5) . . ? 
C26 C21 P2 117.7(4) . . ? 
C21 C22 C23 118.4(6) . . ? 
C24 C23 C22 121.4(7) . . ? 
C25 C24 C23 120.4(7) . . ? 
C24 C25 C26 120.4(7) . . ? 
C25 C26 C21 120.8(6) . . ? 

_diffrn_measured_fraction_theta_max    0.926 
_diffrn_reflns_theta_full              27.50 
_diffrn_measured_fraction_theta_full   0.926 
_refine_diff_density_max    1.696 
_refine_diff_density_min   -1.281 
_refine_diff_density_rms    0.152 

data_W-Se-Pd-dppp cluster 

_database_code_CSD	174698


_audit_creation_method            SHELXL-97 
_chemical_name_systematic 
; 
? 
; 
_chemical_name_common             ? 
_chemical_melting_point           ? 
_chemical_formula_moiety          ? 
_chemical_formula_sum 
'C28 H28 Cl2 P2 Pd Se4 W' 
_chemical_formula_weight          1103.43 

loop_ 
_atom_type_symbol 
_atom_type_description 
_atom_type_scat_dispersion_real 
_atom_type_scat_dispersion_imag 
_atom_type_scat_source 
'C'  'C'   0.0033   0.0016 
'International Tables Vol C Tables 4.2.6.8 and 6.1.1.4' 
'H'  'H'   0.0000   0.0000 
'International Tables Vol C Tables 4.2.6.8 and 6.1.1.4' 
'P'  'P'   0.1023   0.0942 
'International Tables Vol C Tables 4.2.6.8 and 6.1.1.4' 
'Se'  'Se'  -0.0929   2.2259 
'International Tables Vol C Tables 4.2.6.8 and 6.1.1.4' 
'Pd'  'Pd'  -0.9988   1.0072 
'International Tables Vol C Tables 4.2.6.8 and 6.1.1.4' 
'W'  'W'  -0.8490   6.8722 
'International Tables Vol C Tables 4.2.6.8 and 6.1.1.4' 
'Cl'  'Cl'   0.1484   0.1585 
'International Tables Vol C Tables 4.2.6.8 and 6.1.1.4' 

_symmetry_cell_setting            Monoclinic
_symmetry_space_group_name_H-M    P2(1)/m

loop_ 
_symmetry_equiv_pos_as_xyz 
'x, y, z' 
'-x, y+1/2, -z' 
'-x, -y, -z' 
'x, -y-1/2, z' 

_cell_length_a                    10.0512(6) 
_cell_length_b                    14.8092(9) 
_cell_length_c                    10.8528(7) 
_cell_angle_alpha                 90.00 
_cell_angle_beta                  91.4810(10) 
_cell_angle_gamma                 90.00 
_cell_volume                      1614.90(17) 
_cell_formula_units_Z             2 
_cell_measurement_temperature     293(2) 
_cell_measurement_reflns_used     ? 
_cell_measurement_theta_min       ? 
_cell_measurement_theta_max       ? 

_exptl_crystal_description        block
_exptl_crystal_colour             'deep-red'
_exptl_crystal_size_max           0.35
_exptl_crystal_size_mid           0.23
_exptl_crystal_size_min           0.18
_exptl_crystal_density_meas       ? 
_exptl_crystal_density_diffrn     2.269 
_exptl_crystal_density_method     'not measured' 
_exptl_crystal_F_000              1032 
_exptl_absorpt_coefficient_mu     8.906 
_exptl_absorpt_correction_type    ? 
_exptl_absorpt_correction_T_min   ? 
_exptl_absorpt_correction_T_max   ? 
_exptl_absorpt_process_details    ? 

_exptl_special_details 
; 
? 
; 

_diffrn_ambient_temperature       293(2) 
_diffrn_radiation_wavelength      0.71073 
_diffrn_radiation_type            MoK\a 
_diffrn_radiation_source          'fine-focus sealed tube' 
_diffrn_radiation_monochromator   graphite 
_diffrn_measurement_device_type   'Smart CCD' 
_diffrn_measurement_method        ? 
_diffrn_detector_area_resol_mean  ? 
_diffrn_standards_number          ? 
_diffrn_standards_interval_count  ? 
_diffrn_standards_interval_time   ? 
_diffrn_standards_decay_%         ? 
_diffrn_reflns_number             7972 
_diffrn_reflns_av_R_equivalents   0.0472 
_diffrn_reflns_av_sigmaI/netI     0.0349 
_diffrn_reflns_limit_h_min        -11 
_diffrn_reflns_limit_h_max        10 
_diffrn_reflns_limit_k_min        -13 
_diffrn_reflns_limit_k_max        17 
_diffrn_reflns_limit_l_min        -12 
_diffrn_reflns_limit_l_max        12 
_diffrn_reflns_theta_min          1.88 
_diffrn_reflns_theta_max          25.00 
_reflns_number_total              2949 
_reflns_number_gt                 2698 
_reflns_threshold_expression      >2sigma(I) 

_computing_data_collection        ? 
_computing_cell_refinement        ? 
_computing_data_reduction         SAINT 
_computing_structure_solution     'SHELXS-97 (Sheldrick, 1990)' 
_computing_structure_refinement   'SHELXL-97 (Sheldrick, 1997)' 
_computing_molecular_graphics     ? 
_computing_publication_material   ? 

_refine_special_details 
; 
Refinement of F^2^ against ALL reflections.  The weighted R-factor wR and 
goodness of fit S are based on F^2^, conventional R-factors R are based 
on F, with F set to zero for negative F^2^. The threshold expression of 
F^2^ > 2sigma(F^2^) is used only for calculating R-factors(gt) etc. and is 
not relevant to the choice of reflections for refinement.  R-factors based 
on F^2^ are statistically about twice as large as those based on F, and R- 
factors based on ALL data will be even larger. 
; 

_refine_ls_structure_factor_coef  Fsqd  
_refine_ls_matrix_type            full 
_refine_ls_weighting_scheme       calc  
_refine_ls_weighting_details 
'calc w=1/[\s^2^(Fo^2^)+(0.1145P)^2^+3.1731P] where P=(Fo^2^+2Fc^2^)/3' 
_atom_sites_solution_primary      direct 
_atom_sites_solution_secondary    difmap 
_atom_sites_solution_hydrogens    geom 
_refine_ls_hydrogen_treatment     mixed 
_refine_ls_extinction_method      SHELXL 
_refine_ls_extinction_coef        0.0006(4) 
_refine_ls_extinction_expression 
'Fc^*^=kFc[1+0.001xFc^2^\l^3^/sin(2\q)]^-1/4^' 
_refine_ls_number_reflns          2949 
_refine_ls_number_parameters      176 
_refine_ls_number_restraints      0 
_refine_ls_R_factor_all           0.0563 
_refine_ls_R_factor_gt            0.0534 
_refine_ls_wR_factor_ref          0.1549 
_refine_ls_wR_factor_gt           0.1517 
_refine_ls_goodness_of_fit_ref    1.059 
_refine_ls_restrained_S_all       1.059 
_refine_ls_shift/su_max           0.005 
_refine_ls_shift/su_mean          0.002 

loop_ 
_atom_site_label 
_atom_site_type_symbol 
_atom_site_fract_x 
_atom_site_fract_y 
_atom_site_fract_z 
_atom_site_U_iso_or_equiv 
_atom_site_adp_type 
_atom_site_occupancy 
_atom_site_symmetry_multiplicity 
_atom_site_calc_flag 
_atom_site_refinement_flags 
_atom_site_disorder_assembly 
_atom_site_disorder_group 
C1 C 0.6192(7) 0.0390(5) 0.7043(6) 0.0328(15) Uani 1 1 d . . . 
C2 C 0.7286(8) 0.0486(6) 0.6314(8) 0.0457(18) Uani 1 1 d . . . 
H2 H 0.7421 0.1024 0.5893 0.055 Uiso 1 1 calc R . . 
C3 C 0.8179(9) -0.0214(8) 0.6207(9) 0.058(2) Uani 1 1 d . . . 
H3 H 0.8911 -0.0146 0.5709 0.070 Uiso 1 1 calc R . . 
C4 C 0.8002(10) -0.1008(7) 0.6825(9) 0.062(3) Uani 1 1 d . . . 
H4 H 0.8622 -0.1471 0.6765 0.075 Uiso 1 1 calc R . . 
C5 C 0.6919(10) -0.1114(6) 0.7524(10) 0.061(3) Uani 1 1 d . . . 
H5 H 0.6787 -0.1659 0.7928 0.074 Uiso 1 1 calc R . . 
C6 C 0.5994(8) -0.0417(5) 0.7649(7) 0.0425(18) Uani 1 1 d . . . 
H6 H 0.5254 -0.0496 0.8134 0.051 Uiso 1 1 calc R . . 
C7 C 0.3510(7) 0.0888(5) 0.7755(7) 0.0338(15) Uani 1 1 d . . . 
C8 C 0.2913(9) 0.1225(6) 0.8804(8) 0.048(2) Uani 1 1 d . . . 
H8 H 0.3341 0.1667 0.9275 0.057 Uiso 1 1 calc R . . 
C9 C 0.1690(9) 0.0905(7) 0.9147(10) 0.062(3) Uani 1 1 d . . . 
H9 H 0.1296 0.1135 0.9847 0.075 Uiso 1 1 calc R . . 
C10 C 0.1064(10) 0.0267(8) 0.8482(10) 0.066(3) Uani 1 1 d . . . 
H10 H 0.0234 0.0065 0.8724 0.079 Uiso 1 1 calc R . . 
C11 C 0.1626(9) -0.0107(7) 0.7424(9) 0.056(2) Uani 1 1 d . . . 
H11 H 0.1195 -0.0559 0.6973 0.067 Uiso 1 1 calc R . . 
C12 C 0.2835(8) 0.0223(6) 0.7088(8) 0.0469(19) Uani 1 1 d . . . 
H12 H 0.3221 -0.0008 0.6384 0.056 Uiso 1 1 calc R . . 
C13 C 0.4684(9) 0.1647(5) 0.5608(6) 0.0401(17) Uani 1 1 d . . . 
H13A H 0.5513 0.1722 0.5181 0.048 Uiso 1 1 calc R . . 
H13B H 0.4205 0.1150 0.5220 0.048 Uiso 1 1 calc R . . 
C14 C 0.3864(12) 0.2500 0.5445(11) 0.041(2) Uani 1 2 d S . . 
H14A H 0.3449 0.2500 0.4628 0.050 Uiso 1 2 calc SR . . 
H14B H 0.3161 0.2500 0.6041 0.050 Uiso 1 2 calc SR . . 
C15 C 0.981(3) 0.7500 0.354(3) 0.129(9) Uiso 1 2 d S . . 
H15A H 0.9248 0.6972 0.3455 0.155 Uiso 0.50 1 calc PR . . 
H15B H 0.9248 0.8028 0.3455 0.155 Uiso 0.50 1 calc PR . . 
Cl1 Cl 1.0863(10) 0.7500 0.2432(10) 0.173(3) Uiso 1 2 d S . . 
Cl2 Cl 1.0520(10) 0.7500 0.5028(10) 0.175(3) Uiso 1 2 d S . . 
P1 P 0.50687(18) 0.13485(11) 0.72252(16) 0.0295(4) Uani 1 1 d . . . 
Pd1 Pd 0.58682(8) 0.2500 0.84559(7) 0.0288(3) Uani 1 2 d S . . 
Se1 Se 0.66407(9) 0.12328(5) 0.97816(7) 0.0448(3) Uani 1 1 d . . . 
Se2 Se 0.63112(15) 0.2500 1.27901(12) 0.0599(4) Uani 1 2 d S . . 
Se3 Se 0.95481(13) 0.2500 1.12581(14) 0.0589(4) Uani 1 2 d S . . 
W1 W 0.73095(4) 0.2500 1.09428(3) 0.0336(2) Uani 1 2 d S . . 

loop_ 
_atom_site_aniso_label 
_atom_site_aniso_U_11 
_atom_site_aniso_U_22 
_atom_site_aniso_U_33 
_atom_site_aniso_U_23 
_atom_site_aniso_U_13 
_atom_site_aniso_U_12 
C1 0.045(4) 0.032(4) 0.022(3) -0.004(3) -0.004(3) 0.001(3) 
C2 0.046(4) 0.050(5) 0.041(4) 0.001(4) 0.001(3) -0.004(3) 
C3 0.043(5) 0.081(7) 0.051(5) -0.008(5) 0.000(4) 0.014(4) 
C4 0.056(5) 0.070(7) 0.060(6) -0.021(5) -0.016(5) 0.031(5) 
C5 0.083(7) 0.026(4) 0.074(7) -0.004(4) -0.017(5) 0.008(4) 
C6 0.062(5) 0.026(4) 0.040(4) -0.002(3) 0.005(4) 0.002(3) 
C7 0.041(4) 0.026(3) 0.034(4) 0.001(3) -0.001(3) 0.000(3) 
C8 0.067(5) 0.039(4) 0.038(4) -0.005(4) 0.015(4) 0.003(4) 
C9 0.058(6) 0.060(6) 0.070(7) 0.002(5) 0.023(5) -0.001(4) 
C10 0.059(6) 0.068(7) 0.072(7) 0.014(5) 0.014(5) -0.010(5) 
C11 0.055(5) 0.061(6) 0.052(5) 0.005(4) -0.007(4) -0.017(4) 
C12 0.058(5) 0.042(4) 0.040(4) -0.002(4) -0.003(4) -0.007(4) 
C13 0.071(5) 0.030(4) 0.019(3) -0.001(3) -0.004(3) 0.001(3) 
C14 0.053(6) 0.037(6) 0.034(6) 0.000 -0.009(5) 0.000 
P1 0.0447(10) 0.0229(9) 0.0209(9) -0.0009(6) 0.0007(7) -0.0016(7) 
Pd1 0.0466(5) 0.0202(4) 0.0195(4) 0.000 -0.0022(3) 0.000 
Se1 0.0785(6) 0.0246(4) 0.0305(5) 0.0021(3) -0.0137(4) 0.0015(3) 
Se2 0.0858(10) 0.0614(8) 0.0333(7) 0.000 0.0155(6) 0.000 
Se3 0.0543(8) 0.0622(9) 0.0598(9) 0.000 -0.0079(6) 0.000 
W1 0.0523(3) 0.0276(3) 0.0208(3) 0.000 -0.00221(19) 0.000 

_geom_special_details 
; 
All esds (except the esd in the dihedral angle between two l.s. planes) 
are estimated using the full covariance matrix.  The cell esds are taken 
into account individually in the estimation of esds in distances, angles 
and torsion angles; correlations between esds in cell parameters are only 
used when they are defined by crystal symmetry.  An approximate (isotropic) 
treatment of cell esds is used for estimating esds involving l.s. planes. 
; 

loop_ 
_geom_bond_atom_site_label_1 
_geom_bond_atom_site_label_2 
_geom_bond_distance 
_geom_bond_site_symmetry_2 
_geom_bond_publ_flag 
C1 C2 1.378(11) . ? 
C1 C6 1.381(11) . ? 
C1 P1 1.828(7) . ? 
C2 C3 1.379(12) . ? 
C3 C4 1.366(16) . ? 
C4 C5 1.352(15) . ? 
C5 C6 1.398(12) . ? 
C7 C8 1.393(11) . ? 
C7 C12 1.390(11) . ? 
C7 P1 1.815(7) . ? 
C8 C9 1.377(12) . ? 
C9 C10 1.336(16) . ? 
C10 C11 1.406(15) . ? 
C11 C12 1.368(12) . ? 
C13 C14 1.515(10) . ? 
C13 P1 1.842(7) . ? 
C14 C13 1.515(10) 4_565 ? 
C15 Cl1 1.62(3) . ? 
C15 Cl2 1.74(3) . ? 
P1 Pd1 2.2982(17) . ? 
Pd1 P1 2.2982(17) 4_565 ? 
Pd1 Se1 2.4773(9) 4_565 ? 
Pd1 Se1 2.4773(9) . ? 
Pd1 W1 3.0302(8) . ? 
Se1 W1 2.3491(8) . ? 
Se2 W1 2.2650(13) . ? 
Se3 W1 2.2671(14) . ? 
W1 Se1 2.3492(8) 4_565 ? 

loop_ 
_geom_angle_atom_site_label_1 
_geom_angle_atom_site_label_2 
_geom_angle_atom_site_label_3 
_geom_angle 
_geom_angle_site_symmetry_1 
_geom_angle_site_symmetry_3 
_geom_angle_publ_flag 
C2 C1 C6 119.3(7) . . ? 
C2 C1 P1 119.1(6) . . ? 
C6 C1 P1 121.6(6) . . ? 
C3 C2 C1 120.1(8) . . ? 
C2 C3 C4 120.8(9) . . ? 
C5 C4 C3 119.5(8) . . ? 
C4 C5 C6 121.0(9) . . ? 
C1 C6 C5 119.2(8) . . ? 
C8 C7 C12 117.7(7) . . ? 
C8 C7 P1 121.2(6) . . ? 
C12 C7 P1 121.0(6) . . ? 
C9 C8 C7 120.3(9) . . ? 
C10 C9 C8 120.5(10) . . ? 
C9 C10 C11 121.7(9) . . ? 
C12 C11 C10 117.1(9) . . ? 
C11 C12 C7 122.6(8) . . ? 
C14 C13 P1 114.3(6) . . ? 
C13 C14 C13 112.8(10) 4_565 . ? 
Cl1 C15 Cl2 115.4(16) . . ? 
C7 P1 C1 106.5(3) . . ? 
C7 P1 C13 103.3(4) . . ? 
C1 P1 C13 101.5(3) . . ? 
C7 P1 Pd1 112.7(2) . . ? 
C1 P1 Pd1 115.5(2) . . ? 
C13 P1 Pd1 115.9(2) . . ? 
P1 Pd1 P1 95.80(9) . 4_565 ? 
P1 Pd1 Se1 177.74(6) . 4_565 ? 
P1 Pd1 Se1 82.82(5) 4_565 4_565 ? 
P1 Pd1 Se1 82.82(5) . . ? 
P1 Pd1 Se1 177.74(6) 4_565 . ? 
Se1 Pd1 Se1 98.49(4) 4_565 . ? 
P1 Pd1 W1 132.03(4) . . ? 
P1 Pd1 W1 132.03(4) 4_565 . ? 
Se1 Pd1 W1 49.25(2) 4_565 . ? 
Se1 Pd1 W1 49.25(2) . . ? 
W1 Se1 Pd1 77.73(3) . . ? 
Se2 W1 Se3 109.09(6) . . ? 
Se2 W1 Se1 110.35(3) . . ? 
Se3 W1 Se1 110.49(3) . . ? 
Se2 W1 Se1 110.35(3) . 4_565 ? 
Se3 W1 Se1 110.49(3) . 4_565 ? 
Se1 W1 Se1 106.05(4) . 4_565 ? 
Se2 W1 Pd1 125.16(5) . . ? 
Se3 W1 Pd1 125.75(4) . . ? 
Se1 W1 Pd1 53.024(19) . . ? 
Se1 W1 Pd1 53.023(19) 4_565 . ? 

_diffrn_measured_fraction_theta_max    0.997 
_diffrn_reflns_theta_full              25.00 
_diffrn_measured_fraction_theta_full   0.997 
_refine_diff_density_max    3.892 
_refine_diff_density_min   -2.370 
_refine_diff_density_rms    0.248 




