#------------------------------------------------------------------------------
#$Date$
#$Revision$
#$URL$
#------------------------------------------------------------------------------
#
# This file is available in the Crystallography Open Database (COD),
# http://www.crystallography.net/
#
# All data on this site have been placed in the public domain by the
# contributors.
#
data_compound_I
_journal_name_full  'Acta Crystallographica, Section C'
_journal_year  2000
_journal_volume  56
_journal_page_first  440
_journal_page_last  444
_publ_section_title
;
Three sulfur-containing diborane(4) compounds
;
loop_
_publ_author_name
  'Norman, Nicholas C.'
  'Orpen, A. Guy'
  'Quayle, Michael J.'
  'Rice, Craig R.'
_chemical_formula_sum  'C8 H22 B2 N2 S4 , 0.33C H2 Cl2'
_chemical_formula_weight  324.53
_symmetry_cell_setting  trigonal
_symmetry_space_group_name_H-M  'R -3'
loop_
_symmetry_equiv_pos_as_xyz
  'x, y, z'
  '-y, x-y, z'
  '-x+y, -x, z'
  'x+2/3, y+1/3, z+1/3'
  '-y+2/3, x-y+1/3, z+1/3'
  '-x+y+2/3, -x+1/3, z+1/3'
  'x+1/3, y+2/3, z+2/3'
  '-y+1/3, x-y+2/3, z+2/3'
  '-x+y+1/3, -x+2/3, z+2/3'
  '-x, -y, -z'
  'y, -x+y, -z'
  'x-y, x, -z'
  '-x+2/3, -y+1/3, -z+1/3'
  'y+2/3, -x+y+1/3, -z+1/3'
  'x-y+2/3, x+1/3, -z+1/3'
  '-x+1/3, -y+2/3, -z+2/3'
  'y+1/3, -x+y+2/3, -z+2/3'
  'x-y+1/3, x+2/3, -z+2/3'
_cell_length_a  29.629(3)
_cell_length_b  29.629(3)
_cell_length_c  9.438(2)
_cell_angle_alpha  90.00
_cell_angle_beta  90.00
_cell_angle_gamma  120.00
_cell_volume  7175.6(17)
_cell_formula_units_Z  18
_cell_measurement_temperature  173(2)
_exptl_crystal_density_diffrn  1.351
_diffrn_ambient_temperature  173(2)
loop_
_atom_site_label
_atom_site_fract_x
_atom_site_fract_y
_atom_site_fract_z
_atom_site_U_iso_or_equiv
_atom_site_adp_type
_atom_site_calc_flag
_atom_site_refinement_flags
_atom_site_occupancy
_atom_site_disorder_assembly
_atom_site_disorder_group
_atom_site_type_symbol
  B1  .20685(12)  -.02069(12)  .4514(3)  .0192(6) Uani d . 1 . . B
  B2  .20020(12)  -.01816(12)  .2670(3)  .0197(6) Uani d . 1 . . B
  S1  .27421(3)  -.01263(3)  .49095(8)  .02416(18) Uani d . 1 . . S
  S2  .15851(3)  -.08274(3)  .55607(8)  .02427(18) Uani d . 1 . . S
  S3  .13218(3)  -.03911(3)  .19478(8)  .02757(19) Uani d . 1 . . S
  S4  .24342(3)  .05338(3)  .20414(8)  .0285(2) Uani d . 1 . . S
  N1  .20302(10)  .02798(9)  .5250(3)  .0228(5) Uani d . 1 . . N
  H1C  .2234  .0571  .4694  .027 Uiso calc R 1 . . H
  N2  .22223(9)  -.05292(9)  .1847(3)  .0231(5) Uani d . 1 . . N
  H2C  .2566  -.0395  .2138  .028 Uiso calc R 1 . . H
  C1  .25751(13)  -.04940(13)  .6567(4)  .0321(7) Uani d . 1 . . C
  H1A  .2842  -.0592  .6792  .039 Uiso calc R 1 . . H
  H1B  .2566  -.0277  .7351  .039 Uiso calc R 1 . . H
  C2  .20473(13)  -.09792(12)  .6409(4)  .0331(7) Uani d . 1 . . C
  H2A  .1914  -.1133  .7354  .040 Uiso calc R 1 . . H
  H2B  .2082  -.1239  .5832  .040 Uiso calc R 1 . . H
  C3  .15038(16)  .01010(15)  .0581(4)  .0438(9) Uani d . 1 . . C
  H3A  .1621  -.0004  -.0277  .053 Uiso calc R 1 . . H
  H3B  .1199  .0136  .0323  .053 Uiso calc R 1 . . H
  C4  .19386(17)  .06166(15)  .1125(4)  .0481(10) Uani d . 1 . . C
  H4A  .1793  .0771  .1782  .058 Uiso calc R 1 . . H
  H4B  .2100  .0859  .0320  .058 Uiso calc R 1 . . H
  C5  .19398(13)  -.10876(12)  .2266(4)  .0321(7) Uani d . 1 . . C
  H5A  .1928  -.1114  .3302  .048 Uiso calc R 1 . . H
  H5B  .2121  -.1261  .1882  .048 Uiso calc R 1 . . H
  H5C  .1584  -.1256  .1891  .048 Uiso calc R 1 . . H
  C6  .22322(13)  -.05051(14)  .0267(3)  .0314(7) Uani d . 1 . . C
  H6A  .2416  -.0140  -.0038  .047 Uiso calc R 1 . . H
  H6B  .1874  -.0678  -.0095  .047 Uiso calc R 1 . . H
  H6C  .2413  -.0682  -.0103  .047 Uiso calc R 1 . . H
  C7  .22376(14)  .04256(13)  .6722(3)  .0316(7) Uani d . 1 . . C
  H7A  .2589  .0473  .6764  .047 Uiso calc R 1 . . H
  H7B  .2009  .0148  .7378  .047 Uiso calc R 1 . . H
  H7C  .2251  .0751  .6990  .047 Uiso calc R 1 . . H
  C8  .14942(13)  .02106(14)  .5234(4)  .0334(7) Uani d . 1 . . C
  H8A  .1348  .0114  .4277  .050 Uiso calc R 1 . . H
  H8B  .1512  .0538  .5513  .050 Uiso calc R 1 . . H
  H8C  .1271  -.0066  .5900  .050 Uiso calc R 1 . . H
  C9  .0424  .0509  .7322  .062(4) Uiso d P  .156(8) A 1 C
  Cl1 0 0  .6474 1.00(2) Uiso d SP  .47(2) . 1 Cl
  Cl2 0 0  .8258 1.00(2) Uiso d SP  .47(2) . 1 Cl
  C9'  .0525  .0085  .7668  .084(3) Uiso d P  .178(8) A 2 C
  Cl1' 0 0  .6474 1.00(2) Uiso d SP  .53(2) . 2 Cl
  Cl2' 0 0  .8258 1.00(2) Uiso d SP  .53(2) . 2 Cl
loop_
_atom_site_aniso_label
_atom_site_aniso_U_11
_atom_site_aniso_U_22
_atom_site_aniso_U_33
_atom_site_aniso_U_12
_atom_site_aniso_U_13
_atom_site_aniso_U_23
  B1  .0201(15)  .0169(14)  .0193(16)  .0082(12)  .0014(12)  -.0010(12)
  B2  .0198(15)  .0185(15)  .0180(15)  .0075(13)  .0019(12)  .0002(12)
  S1  .0210(4)  .0267(4)  .0232(4)  .0107(3)  -.0012(3)  -.0022(3)
  S2  .0235(4)  .0199(4)  .0245(4)  .0071(3)  .0022(3)  .0041(3)
  S3  .0242(4)  .0343(4)  .0231(4)  .0138(3)  -.0018(3)  -.0003(3)
  S4  .0329(4)  .0209(4)  .0253(4)  .0087(3)  .0069(3)  .0042(3)
  N1  .0280(13)  .0200(12)  .0204(12)  .0119(10)  .0023(10)  -.0004(9)
  N2  .0222(12)  .0234(12)  .0215(13)  .0097(10)  -.0002(10)  -.0044(10)
  C1  .0337(17)  .0316(17)  .0312(17)  .0164(15)  -.0077(14)  .0021(13)
  C2  .0389(19)  .0261(16)  .0312(18)  .0140(14)  -.0083(14)  .0051(13)
  C3  .050(2)  .054(2)  .0322(19)  .030(2)  -.0050(16)  .0078(17)
  C4  .064(3)  .039(2)  .042(2)  .027(2)  -.0070(19)  .0127(17)
  C5  .0394(18)  .0240(16)  .0321(18)  .0153(14)  .0035(14)  -.0046(13)
  C6  .0328(17)  .0415(19)  .0184(15)  .0175(15)  .0017(13)  -.0070(13)
  C7  .0436(19)  .0300(17)  .0209(16)  .0182(15)  -.0023(14)  -.0076(13)
  C8  .0340(18)  .0354(18)  .0366(19)  .0218(15)  .0004(14)  -.0059(14)
loop_
_geom_bond_atom_site_label_1
_geom_bond_atom_site_label_2
_geom_bond_site_symmetry_2
_geom_bond_distance
_geom_bond_publ_flag
  B1 N1 . 1.655(4) y
  B1 B2 . 1.758(5) y
  B1 S1 . 1.924(3) y
  B1 S2 . 1.943(3) y
  B2 N2 . 1.662(4) y
  B2 S3 . 1.913(3) y
  B2 S4 . 1.942(3) y
  S1 C1 . 1.827(3) y
  S2 C2 . 1.826(3) y
  S3 C3 . 1.815(4) y
  S4 C4 . 1.823(4) y
  N1 C7 . 1.492(4) ?
  N1 C8 . 1.496(4) ?
  N2 C5 . 1.487(4) ?
  N2 C6 . 1.492(4) ?
  C1 C2 . 1.512(4) y
  C3 C4 . 1.513(6) y
  C9 Cl1 . 1.6120(2) ?
  C9 Cl2 . 1.6548(2) ?
  Cl1 C9 3 1.6120(2) ?
  Cl1 C9 2 1.6120(2) ?
  Cl2 C9 3 1.6548(2) ?
  Cl2 C9 2 1.6548(2) ?
